&CONTROL
  calculation = 'vc-relax'
  etot_conv_thr =   3.6000000000d-04
  forc_conv_thr =   1.0000000000d-04
  outdir = './out/'
  prefix = 'aiida'
  pseudo_dir = '/leonardo_scratch/large/userexternal/nalghamd/mc_mace/GNoME-screening/2_space_group_DFT/pseudo_SSSP1.3_aiida'
  tprnfor = .true.
  tstress = .true.
  verbosity = 'high'
  nstep = 180
  max_seconds = 75600
  restart_mode = 'restart'
/
&SYSTEM
  degauss =   2.0000000000d-02
  ecutrho =   1.0800000000d+03
  ecutwfc =   9.0000000000d+01
  ibrav = 0
  nat = 36
  nosym = .false.
  nspin = 2
  ntyp = 4
  occupations = 'smearing'
  smearing = 'cold'
  starting_magnetization(1) =   3.1250000000d-01
  starting_magnetization(2) =   1.0000000000d-01
  starting_magnetization(3) =   1.0000000000d-01
  starting_magnetization(4) =   1.0000000000d-01
/
&ELECTRONS
  conv_thr =   7.2000000000d-09
  electron_maxstep = 250
  mixing_beta = 0.7 !4.0000000000d-01
  diagonalization = 'cg'
/
&IONS
/
&CELL
/
&FCP
/
&RISM
/
ATOMIC_SPECIES
Fe     55.845 Fe.pbesol-spn-kjpaw_psl.0.2.1.UPF
Mg     24.305 Mg.pbesol-n-kjpaw_psl.0.3.0.UPF
N      14.0067 N.pbesol-theos.UPF
O      15.9994 O.pbesol-n-kjpaw_psl.0.1.UPF
ATOMIC_POSITIONS crystal
Mg           0.0000000000       0.0000000000       0.0000000000
Fe           1.0000000000       0.5000000000       0.5000000000
Fe           0.5000000000       0.5000000000       0.0000000000
Fe           0.5000000000       1.0000000000       0.5000000000
N            0.3364620000       0.3364180000       0.3365510000
N            0.8452360000       0.1596350000       0.6543610000
N            0.1596850000       0.6542710000       0.8451430000
N            0.6543390000       0.8451730000       0.1597580000
N            0.1547640000       0.8403650000       0.3456390000
N            0.6635380000       0.6635820000       0.6634490000
N            0.3456610000       0.1548270000       0.8402420000
N            0.8403150000       0.3457290000       0.1548570000
O            0.9832270000       0.2506180000       0.6352910000
O            0.0167730000       0.7493820000       0.3647090000
O            0.6352580000       0.9831060000       0.2508640000
O            0.2510610000       0.6351630000       0.9829950000
O            0.3301090000       0.2236960000       0.4564500000
O            0.4562400000       0.3299320000       0.2235270000
O            0.2236080000       0.4563690000       0.3301800000
O            0.6698910000       0.7763040000       0.5435500000
O            0.5437600000       0.6700680000       0.7764730000
O            0.7763920000       0.5436310000       0.6698200000
O            0.7215640000       0.1725270000       0.5446830000
O            0.5447850000       0.7215630000       0.1726810000
O            0.1723670000       0.5445160000       0.7214910000
O            0.2784360000       0.8274730000       0.4553170000
O            0.4552150000       0.2784370000       0.8273190000
O            0.8276330000       0.4554840000       0.2785090000
O            0.1672450000       0.9433730000       0.2179470000
O            0.2178710000       0.1671650000       0.9432700000
O            0.9432600000       0.2181040000       0.1671510000
O            0.8327550000       0.0566270000       0.7820530000
O            0.7821290000       0.8328350000       0.0567300000
O            0.0567400000       0.7818960000       0.8328490000
O            0.3647420000       0.0168940000       0.7491360000
O            0.7489390000       0.3648370000       0.0170050000
K_POINTS automatic
6 6 6 0 0 0
CELL_PARAMETERS angstrom
      7.6399449500       0.0000000000       0.0000000000
     -0.0574642076       7.6465149689       0.0000000000
     -0.0575705568      -0.0604545431       7.6404629370
HUBBARD (ortho-atomic)
U Fe-3d 4.5
