&CONTROL
  calculation = 'vc-relax'
  etot_conv_thr =   2.0000000000d-04
  forc_conv_thr =   1.0000000000d-04
  outdir = './out/'
  prefix = 'aiida'
  pseudo_dir = '/leonardo_scratch/large/userexternal/nalghamd/mc_mace/GNoME-screening/2_space_group_DFT/pseudo_SSSP1.3_aiida'
  tprnfor = .true.
  tstress = .true.
  verbosity = 'high'
  nstep = 180
  max_seconds = 75600
/
&SYSTEM
  degauss =   2.0000000000d-02
  ecutrho =   7.8000000000d+02
  ecutwfc =   6.5000000000d+01
  ibrav = 0
  nat = 20
  nosym = .false.
  nspin = 2
  ntyp = 4
  occupations = 'smearing'
  smearing = 'cold'
  starting_magnetization(1) =   1.0000000000d-01
  starting_magnetization(2) =   1.0000000000d-01
  starting_magnetization(3) =   3.3333333333d-01
  starting_magnetization(4) =   3.8461538462d-01
/
&ELECTRONS
  conv_thr =   4.0000000000d-09
  electron_maxstep = 250
  mixing_beta =   4.0000000000d-01
/
&IONS
/
&CELL
/
&FCP
/
&RISM
/
ATOMIC_SPECIES
F      18.9984032 f_pbesol_v1.4.uspp.F.UPF
K      39.0983 K.pbesol-spn-kjpaw_psl.1.0.0.UPF
Mn     54.938045 mn_pbesol_v1.5.uspp.F.UPF
V      50.9415 v_pbesol_v1.4.uspp.F.UPF
ATOMIC_POSITIONS crystal
K            0.9909200000       0.0016640000       0.2494950000
K            0.4910300000       0.4983300000       0.2494430000
K            0.5089700000       0.5016700000       0.7505570000
K            0.0090800000       0.9983360000       0.7505050000
Mn           0.0000000000       0.5000000000       0.5000000000
V           -0.0000000000       0.5000000000       0.0000000000
V            0.5000000000       0.0000000000       0.5000000000
V            0.5000000000       0.0000000000       0.0000000000
F            0.7341190000       0.2642310000       0.4775380000
F            0.2350740000       0.2350540000       0.0225710000
F            0.7642480000       0.7656550000       0.5224780000
F            0.2650480000       0.7351050000       0.9774190000
F            0.2658810000       0.7357690000       0.5224620000
F            0.7649260000       0.7649460000       0.9774290000
F            0.2357520000       0.2343450000       0.4775220000
F            0.7349520000       0.2648950000       0.0225810000
F            0.5031840000       0.9563740000       0.2498520000
F            0.0032050000       0.5433550000       0.2490800000
F            0.9967950000       0.4566450000       0.7509200000
F            0.4968160000       0.0436260000       0.7501480000
K_POINTS automatic
8 8 5 0 0 0
CELL_PARAMETERS angstrom
      5.9534910400       0.0000000000       0.0000000000
     -0.0005343387       5.9834879861       0.0000000000
     -0.0018507108       0.0000181865       8.4233018467
HUBBARD (ortho-atomic)
U Mn-3d 4.7
