&CONTROL
  calculation = 'vc-relax'
  etot_conv_thr =   1.5000000000d-04
  forc_conv_thr =   1.0000000000d-04
  outdir = './out/'
  prefix = 'aiida'
  pseudo_dir = '/leonardo_scratch/large/userexternal/nalghamd/mc_mace/GNoME-screening/2_space_group_DFT/pseudo_SSSP1.3_aiida'
  tprnfor = .true.
  tstress = .true.
  verbosity = 'high'
  nstep = 180
  max_seconds = 75600
/
&SYSTEM
  degauss =   2.0000000000d-02
  ecutrho =   7.8000000000d+02
  ecutwfc =   6.5000000000d+01
  ibrav = 0
  nat = 15
  nosym = .false.
  nspin = 2
  ntyp = 4
  occupations = 'smearing'
  smearing = 'cold'
  starting_magnetization(1) =   3.5714285714d-01
  starting_magnetization(2) =   3.3333333333d-01
  starting_magnetization(3) =   1.0000000000d-01
  starting_magnetization(4) =   1.0000000000d-01
/
&ELECTRONS
  conv_thr =   3.0000000000d-09
  electron_maxstep = 250
  mixing_beta =   4.0000000000d-01
/
&IONS
/
&CELL
/
&FCP
/
&RISM
/
ATOMIC_SPECIES
Cr     51.9961 cr_pbesol_v1.5.uspp.F.UPF
Mn     54.938045 mn_pbesol_v1.5.uspp.F.UPF
Na     22.98977 na_pbesol_v1.5.uspp.F.UPF
O      15.9994 O.pbesol-n-kjpaw_psl.0.1.UPF
ATOMIC_POSITIONS crystal
Na           0.5000000000       0.0000000000       0.0000000000
Na          -0.0000000000       0.5000000000       0.0000000000
Na           0.0000000000       0.0000000000       0.5000000000
Mn           0.0000000000       0.0000000000       0.0000000000
Cr           0.5000000000       0.5000000000       0.0000000000
Cr           0.0000000000       0.5000000000       0.5000000000
Cr           0.5000000000       0.0000000000       0.5000000000
O            0.7767270000       0.2569540000       0.7767280000
O            0.2569550000       0.7767270000       0.7767270000
O            0.7767270000       0.7767280000       0.2569530000
O            0.2680280000       0.2680280000       0.2680280000
O            0.7319720000       0.7319720000       0.7319720000
O            0.2232730000       0.2232720000       0.7430470000
O            0.7430450000       0.2232730000       0.2232730000
O            0.2232730000       0.7430460000       0.2232720000
K_POINTS automatic
9 9 9 0 0 0
CELL_PARAMETERS angstrom
      6.4413099900       0.0000000000       0.0000000000
      3.6552373463       5.3037459916       0.0000000000
      3.6552343468       1.9201065783       4.9439750574
HUBBARD (ortho-atomic)
U Mn-3d 4.7
