&CONTROL
  calculation = 'vc-relax'
  etot_conv_thr =   7.2000000000d-04
  forc_conv_thr =   1.0000000000d-04
  outdir = './out/'
  prefix = 'aiida'
  pseudo_dir = '/leonardo_scratch/large/userexternal/nalghamd/mc_mace/GNoME-screening/2_space_group_DFT/pseudo_SSSP1.3_aiida'
  tprnfor = .true.
  tstress = .true.
  verbosity = 'high'
  nstep = 70
  max_seconds = 75600
/
&SYSTEM
  degauss =   2.0000000000d-02
  ecutrho =   4.0000000000d+02
  ecutwfc =   5.0000000000d+01
  ibrav = 0
  nat = 72
  nosym = .false.
  nspin = 2
  ntyp = 5
  occupations = 'smearing'
  smearing = 'cold'
  starting_magnetization(1) =   1.0000000000d-01
  starting_magnetization(2) =   1.0000000000d-01
  starting_magnetization(3) =   2.7777777778d-01
  starting_magnetization(4) =   1.0000000000d-01
  starting_magnetization(5) =   1.0000000000d-01
/
&ELECTRONS
  conv_thr =   1.4400000000d-08
  electron_maxstep = 250
  mixing_beta =   4.0000000000d-01
/
&IONS
/
&CELL
/
&FCP
/
&RISM
/
ATOMIC_SPECIES
Li     6.941 li_pbesol_v1.4.uspp.F.UPF
Mg     24.305 Mg.pbesol-n-kjpaw_psl.0.3.0.UPF
Ni     58.6934 ni_pbesol_v1.4.uspp.F.UPF
O      15.9994 O.pbesol-n-kjpaw_psl.0.1.UPF
P      30.973761 P.pbesol-n-rrkjus_psl.1.0.0.UPF
ATOMIC_POSITIONS crystal
Li           0.0235930000       0.8138220000       0.7505610000
Li           0.4764070000       0.3138220000       0.7494390000
Li           0.9764070000       0.1861780000       0.2494390000
Li           0.5235930000       0.6861780000       0.2505610000
Mg          -0.0000000000       0.0000000000       0.5000000000
Mg           0.5000000000       0.5000000000       0.0000000000
Ni           0.8578570000       0.5433380000       0.0906020000
Ni           0.6421430000       0.0433380000       0.4093980000
Ni           0.1421400000       0.4564230000       0.5904040000
Ni           0.3578600000       0.9564230000       0.9095960000
Ni           0.1421430000       0.4566620000       0.9093980000
Ni           0.3578570000       0.9566620000       0.5906020000
Ni           0.8578600000       0.5435770000       0.4095960000
Ni           0.6421400000       0.0435770000       0.0904040000
Ni           0.0000000000       0.0000000000       0.0000000000
Ni           0.5000000000       0.5000000000       0.5000000000
P            0.2138310000       0.7110760000       0.1090610000
P            0.2861690000       0.2110760000       0.3909390000
P            0.7857450000       0.2895100000       0.6084870000
P            0.7142550000       0.7895100000       0.8915130000
P            0.7861690000       0.2889240000       0.8909390000
P            0.7138310000       0.7889240000       0.6090610000
P            0.2142550000       0.7104900000       0.3915130000
P            0.2857450000       0.2104900000       0.1084870000
P            0.2876760000       0.6481960000       0.7498480000
P            0.2123240000       0.1481960000       0.7501520000
P            0.7123240000       0.3518040000       0.2501520000
P            0.7876760000       0.8518040000       0.2498480000
O            0.2004400000       0.8514510000       0.0301690000
O            0.2995600000       0.3514510000       0.4698310000
O            0.7995920000       0.1491830000       0.5299110000
O            0.7004080000       0.6491830000       0.9700890000
O            0.7995600000       0.1485490000       0.9698310000
O            0.7004400000       0.6485490000       0.5301690000
O            0.2004080000       0.8508170000       0.4700890000
O            0.2995920000       0.3508170000       0.0299110000
O            0.6034570000       0.8892260000       0.2503750000
O            0.8965430000       0.3892260000       0.2496250000
O            0.3965430000       0.1107740000       0.7496250000
O            0.1034570000       0.6107740000       0.7503750000
O            0.8527810000       0.9271320000       0.1317560000
O            0.6472190000       0.4271320000       0.3682440000
O            0.1442350000       0.0732450000       0.6328170000
O            0.3557650000       0.5732450000       0.8671830000
O            0.1472190000       0.0728680000       0.8682440000
O            0.3527810000       0.5728680000       0.6317560000
O            0.8557650000       0.9267550000       0.3671830000
O            0.6442350000       0.4267550000       0.1328170000
O            0.3831780000       0.6497840000       0.1153900000
O            0.1168220000       0.1497840000       0.3846100000
O            0.6161500000       0.3507820000       0.6156240000
O            0.8838500000       0.8507820000       0.8843760000
O            0.6168220000       0.3502160000       0.8846100000
O            0.8831780000       0.8502160000       0.6153900000
O            0.3838500000       0.6492180000       0.3843760000
O            0.1161500000       0.1492180000       0.1156240000
O            0.3104110000       0.8171470000       0.7497820000
O            0.1895890000       0.3171470000       0.7502180000
O            0.6895890000       0.1828530000       0.2502180000
O            0.8104110000       0.6828530000       0.2497820000
O            0.0892360000       0.5975060000       0.0628060000
O            0.4107640000       0.0975060000       0.4371940000
O            0.9104880000       0.4028810000       0.5628120000
O            0.5895120000       0.9028810000       0.9371880000
O            0.9107640000       0.4024940000       0.9371940000
O            0.5892360000       0.9024940000       0.5628060000
O            0.0895120000       0.5971190000       0.4371880000
O            0.4104880000       0.0971190000       0.0628120000
O            0.1619070000       0.7587370000       0.2502680000
O            0.3380930000       0.2587370000       0.2497320000
O            0.8380930000       0.2412630000       0.7497320000
O            0.6619070000       0.7412630000       0.7502680000
K_POINTS automatic
6 5 4 0 0 0
CELL_PARAMETERS angstrom
      8.3364205900       0.0000000000       0.0000000000
      0.0000000000       9.1187440000       0.0000000000
     -0.0206797533       0.0000000000      10.6878024135
HUBBARD (ortho-atomic)
U Ni-3d 5.8
