&CONTROL
  calculation = 'vc-relax'
  etot_conv_thr =   1.1000000000d-04
  forc_conv_thr =   1.0000000000d-04
  outdir = './out/'
  prefix = 'aiida'
  pseudo_dir = '/leonardo_scratch/large/userexternal/nalghamd/mc_mace/GNoME-screening/2_space_group_DFT/pseudo_SSSP1.3_aiida'
  tprnfor = .true.
  tstress = .true.
  verbosity = 'high'
  nstep = 180
  max_seconds = 75600
  restart_mode = 'restart'
/
&SYSTEM
  degauss =   2.0000000000d-02
  ecutrho =   3.2000000000d+02
  ecutwfc =   4.0000000000d+01
  ibrav = 0
  nat = 11
  nosym = .false.
  nspin = 2
  ntyp = 3
  occupations = 'smearing'
  smearing = 'cold'
  starting_magnetization(1) =   1.0000000000d-01
  starting_magnetization(2) =   1.0000000000d-01
  starting_magnetization(3) =   4.1666666667d-01
/
&ELECTRONS
  conv_thr =   2.2000000000d-09
  electron_maxstep = 250
  mixing_beta = 0.7 !0.3  !4.0000000000d-01
  diagonalization = 'cg'
/
&IONS
/
&CELL
/
&FCP
/
&RISM
/
ATOMIC_SPECIES
Na     22.98977 na_pbesol_v1.5.uspp.F.UPF
S      32.065 s_pbesol_v1.4.uspp.F.UPF
Ti     47.867 ti_pbesol_v1.4.uspp.F.UPF

CELL_PARAMETERS (angstrom)
   6.128201648   0.003430944  -0.000698151
  -3.061509508   5.308252383  -0.001125494
   1.022410932   1.770289987   6.746458164

ATOMIC_POSITIONS (crystal)
Na               0.1663154684        0.8336836206        0.5000004951
Na               0.8336845316        0.1663163794        0.4999995049
Ti               0.0000000000        0.0000000000        0.0000000000
Ti               0.3296630055        0.6704907292        0.0000119161
Ti               0.6703369945        0.3295092708       -0.0000119161
S                0.9293295183        0.5968743240        0.2082617483
S                0.2650514261        0.2650345040        0.2058942415
S                0.5968806553        0.9293016751        0.2082764209
S                0.7349485739        0.7349654960        0.7941057585
S                0.0706704817        0.4031256760        0.7917382517
S                0.4031193447        0.0706983249        0.7917235791
K_POINTS automatic
9 9 7 0 0 0
HUBBARD (ortho-atomic)
U Ti-3d 4.7
