&CONTROL
  calculation = 'vc-relax'
  etot_conv_thr =   3.8000000000d-04
  forc_conv_thr =   1.0000000000d-04
  outdir = './out/'
  prefix = 'aiida'
  pseudo_dir = '/leonardo_scratch/large/userexternal/nalghamd/mc_mace/GNoME-screening/2_space_group_DFT/pseudo_SSSP1.3_aiida'
  tprnfor = .true.
  tstress = .true.
  verbosity = 'high'
  nstep = 70
  max_seconds = 75600
/
&SYSTEM
  degauss =   2.0000000000d-02
  ecutrho =   1.0800000000d+03
  ecutwfc =   9.0000000000d+01
  ibrav = 0
  nat = 38
  nosym = .false.
  nspin = 2
  ntyp = 4
  occupations = 'smearing'
  smearing = 'cold'
  starting_magnetization(1) =   3.1250000000d-01
  starting_magnetization(2) =   1.0000000000d-01
  starting_magnetization(3) =   1.0000000000d-01
  starting_magnetization(4) =   1.0000000000d-01
/
&ELECTRONS
  conv_thr =   7.6000000000d-09
  electron_maxstep = 250
  mixing_beta = 0.7  !4.0000000000d-01
/
&IONS
/
&CELL
/
&FCP
/
&RISM
/
ATOMIC_SPECIES
Fe     55.845 Fe.pbesol-spn-kjpaw_psl.0.2.1.UPF
Na     22.98977 na_pbesol_v1.5.uspp.F.UPF
O      15.9994 O.pbesol-n-kjpaw_psl.0.1.UPF
P      30.973761 P.pbesol-n-rrkjus_psl.1.0.0.UPF
ATOMIC_POSITIONS crystal
Na           0.1851030000       0.4634340000       0.7049250000
Na           0.8148970000       0.5365660000       0.2950750000
Na           0.4634340000       0.1851030000       0.2049250000
Na           0.5365660000       0.8148970000       0.7950750000
Fe           0.1353930000       0.8646070000       0.2500000000
Fe           0.8646070000       0.1353930000       0.7500000000
P            0.2056390000       0.0588800000       0.8318440000
P            0.9411200000       0.7943610000       0.6681560000
P            0.0588800000       0.2056390000       0.3318440000
P            0.2349660000       0.5544750000       0.1291970000
P            0.5544750000       0.2349660000       0.6291970000
P            0.4455250000       0.7650340000       0.3708030000
P            0.7943610000       0.9411200000       0.1681560000
P            0.7650340000       0.4455250000       0.8708030000
O            0.9066910000       0.8442780000       0.1579260000
O            0.1155100000       0.8844900000       0.7500000000
O            0.2777880000       0.0215300000       0.9929240000
O            0.3878200000       0.6121800000       0.2500000000
O            0.8964760000       0.3799500000       0.8095470000
O            0.9784700000       0.7222120000       0.5070750000
O            0.8442780000       0.9066910000       0.6579260000
O            0.1557220000       0.0933090000       0.3420740000
O            0.3533420000       0.1627470000       0.6752930000
O            0.6200500000       0.1035240000       0.6904530000
O            0.5925470000       0.3085980000       0.4420430000
O            0.1035240000       0.6200500000       0.1904530000
O            0.6914020000       0.4074530000       0.0579570000
O            0.3085980000       0.5925470000       0.9420430000
O            0.8844900000       0.1155100000       0.2500000000
O            0.1627470000       0.3533420000       0.1752930000
O            0.6466580000       0.8372530000       0.3247070000
O            0.7222120000       0.9784700000       0.0070750000
O            0.3799500000       0.8964760000       0.3095470000
O            0.8372530000       0.6466580000       0.8247070000
O            0.4074530000       0.6914020000       0.5579570000
O            0.0933090000       0.1557220000       0.8420740000
O            0.6121800000       0.3878200000       0.7500000000
O            0.0215300000       0.2777880000       0.4929250000
K_POINTS automatic
6 6 6 0 0 0
CELL_PARAMETERS angstrom
      8.6425030700       0.0000000000       0.0000000000
     -3.3062480381       7.9850850697       0.0000000000
      0.6218083814       0.9304641714       7.6488668711
HUBBARD (ortho-atomic)
U Fe-3d 4.5
