&CONTROL
  calculation = 'vc-relax'
  etot_conv_thr =   6.0000000000d-04
  forc_conv_thr =   1.0000000000d-04
  outdir = './out/'
  prefix = 'aiida'
  pseudo_dir = '/leonardo_scratch/large/userexternal/nalghamd/mc_mace/GNoME-screening/2_space_group_DFT/pseudo_SSSP1.3_aiida'
  tprnfor = .true.
  tstress = .true.
  verbosity = 'high'
  nstep = 70
  max_seconds = 75600
  restart_mode = 'restart'
/
&SYSTEM
  degauss =   2.0000000000d-02
  ecutrho =   1.0800000000d+03
  ecutwfc =   9.0000000000d+01
  ibrav = 0
  nat = 52
  nosym = .false.
  nspin = 2
  ntyp = 5
  occupations = 'smearing'
  smearing = 'cold'
  starting_magnetization(1) =   2.9411764706d-01
  starting_magnetization(2) =   1.0000000000d-01
  starting_magnetization(3) =   3.1250000000d-01
  starting_magnetization(4) =   1.0000000000d-01
  starting_magnetization(5) =   1.0000000000d-01
  starting_magnetization(6) =   1.0000000000d-01
/
&ELECTRONS
  conv_thr =   1.2000000000d-08
  electron_maxstep = 250
  mixing_beta =   4.0000000000d-01
/
&IONS
/
&CELL
/
&FCP
/
&RISM
/
ATOMIC_SPECIES
Co     58.933195 co_pbesol_v1.2.uspp.F.UPF
F      18.9984032 f_pbesol_v1.4.uspp.F.UPF
Fe     55.845 Fe.pbesol-spn-kjpaw_psl.0.2.1.UPF
O      15.9994 O.pbesol-n-kjpaw_psl.0.1.UPF
P      30.973761 P.pbesol-n-rrkjus_psl.1.0.0.UPF
ATOMIC_POSITIONS crystal
Fe           0.0005810000       0.2495120000       0.8358030000
Fe           0.4994190000       0.7495120000       0.6641970000
Fe           0.9994190000       0.7504880000       0.1641970000
Fe           0.5005810000       0.2504880000       0.3358030000
Fe           0.5000000000       0.0000000000       0.5000000000
Fe           0.0000000000       0.5000000000       0.0000000000
Co           0.0000000000       0.0000000000       0.0000000000
Co           0.5000000000       0.5000000000       0.5000000000
P            0.2181090000       0.2494420000       0.5793000000
P            0.2818910000       0.7494420000       0.9207000000
P            0.7182740000       0.7523770000       0.9211040000
P            0.7817260000       0.2523770000       0.5788960000
P            0.7818910000       0.7505580000       0.4207000000
P            0.7181090000       0.2505580000       0.0793000000
P            0.2817260000       0.2476230000       0.0788960000
P            0.2182740000       0.7476230000       0.4211040000
O            0.0005420000       0.2507960000       0.5211640000
O            0.4994580000       0.7507960000       0.9788360000
O            0.9994580000       0.7492040000       0.4788360000
O            0.5005420000       0.2492040000       0.0211640000
O            0.1737240000       0.3283690000       0.9873600000
O            0.3262760000       0.8283690000       0.5126400000
O            0.6717530000       0.6692270000       0.5109510000
O            0.8282470000       0.1692270000       0.9890490000
O            0.8262760000       0.6716310000       0.0126400000
O            0.6737240000       0.1716310000       0.4873600000
O            0.3282470000       0.3307730000       0.4890490000
O            0.1717530000       0.8307730000       0.0109510000
O            0.2805240000       0.1105290000       0.5823820000
O            0.2194760000       0.6105290000       0.9176180000
O            0.7808960000       0.8909940000       0.9171360000
O            0.7191040000       0.3909940000       0.5828640000
O            0.7194760000       0.8894710000       0.4176180000
O            0.7805240000       0.3894710000       0.0823820000
O            0.2191040000       0.1090060000       0.0828640000
O            0.2808960000       0.6090060000       0.4171360000
O            0.2050300000       0.3090920000       0.7011770000
O            0.2949700000       0.8090920000       0.7988230000
O            0.7048730000       0.6914070000       0.7996820000
O            0.7951270000       0.1914070000       0.7003180000
O            0.7949700000       0.6909080000       0.2988230000
O            0.7050300000       0.1909080000       0.2011770000
O            0.2951270000       0.3085930000       0.2003180000
O            0.2048730000       0.8085930000       0.2996820000
F            0.1139970000       0.0738760000       0.8475030000
F            0.3860030000       0.5738760000       0.6524970000
F            0.6166180000       0.9237010000       0.6553790000
F            0.8833820000       0.4237010000       0.8446210000
F            0.8860030000       0.9261240000       0.1524970000
F            0.6139970000       0.4261240000       0.3475030000
F            0.3833820000       0.0762990000       0.3446210000
F            0.1166180000       0.5762990000       0.1553790000
K_POINTS automatic
7 4 4 0 0 0
CELL_PARAMETERS angstrom
      6.9441990000       0.0000000000       0.0000000000
      0.0000000000      10.5790220000       0.0000000000
      0.0000000000       0.0000000000      11.4141590000
HUBBARD (ortho-atomic)
U Fe-3d 4.5
U Co-3d 5.2
