&CONTROL
  calculation = 'vc-relax'
  etot_conv_thr =   2.1000000000d-04
  forc_conv_thr =   1.0000000000d-04
  outdir = './out/'
  prefix = 'aiida'
  pseudo_dir = '/leonardo_scratch/large/userexternal/nalghamd/mc_mace/GNoME-screening/2_space_group_DFT/pseudo_SSSP1.3_aiida'
  tprnfor = .true.
  tstress = .true.
  verbosity = 'high'
  nstep = 10
  max_seconds = 75600
/
&SYSTEM
  degauss =   2.0000000000d-02
  ecutrho =   4.0000000000d+02
  ecutwfc =   5.0000000000d+01
  ibrav = 0
  nat = 21
  nosym = .false.
  nspin = 2
  ntyp = 4
  occupations = 'smearing'
  smearing = 'cold'
  starting_magnetization(1) =   1.0000000000d-01
  starting_magnetization(2) =   1.0000000000d-01
  starting_magnetization(3) =   1.0000000000d-01
  starting_magnetization(4) =   3.8461538462d-01
/
&ELECTRONS
  conv_thr =   4.2000000000d-09
  electron_maxstep = 250
  mixing_beta = 0.1  !4.0000000000d-01
  diagonalization = 'cg'
/
&IONS
/
&CELL
/
&FCP
/
&RISM
/
ATOMIC_SPECIES
Na     22.98977 na_pbesol_v1.5.uspp.F.UPF
O      15.9994 O.pbesol-n-kjpaw_psl.0.1.UPF
P      30.973761 P.pbesol-n-rrkjus_psl.1.0.0.UPF
V      50.9415 v_pbesol_v1.4.uspp.F.UPF


CELL_PARAMETERS (angstrom)
   4.787138732  -0.020235102  -0.007245747
  -1.830837386   6.728045373   0.062854317
  -0.499930891  -0.267353299   7.982665343

ATOMIC_POSITIONS (crystal)
Na              -0.0000000000       -0.0000000000        0.5000000000
V                0.5000000000        0.5000000000        0.5000000000
V                0.0000000000        0.0000000000        0.0000000000
P                0.0096543934        0.6215834361        0.2524138770
P                0.9903456066        0.3784165639        0.7475861230
P                0.6185748952        0.2305941740        0.1997658876
P                0.3814251048        0.7694058260        0.8002341124
O                0.7808434111        0.4494942189        0.1402280666
O                0.2191565889        0.5505057811        0.8597719334
O                0.5320425720        0.2424135785        0.3785412869
O                0.4679574280        0.7575864215        0.6214587131
O                0.2702767219        0.5440476932        0.3002027094
O                0.7297232781        0.4559523068        0.6997972906
O                0.8542756265        0.6696944203        0.4031294783
O                0.1762125221        0.9052828942        0.8089954903
O                0.8237874779        0.0947171058        0.1910045097
O                0.9071022190        0.2016150551        0.8618357867
O                0.0928977810        0.7983849449        0.1381642133
O                0.6411451022        0.8303982481        0.9320179730
O                0.3588548978        0.1696017519        0.0679820270
O                0.1457243735        0.3303055797        0.5968705217
K_POINTS automatic
9 7 6 0 0 0
HUBBARD (ortho-atomic)
U V-3d 3.9
