&CONTROL
  calculation = 'vc-relax'
  etot_conv_thr =   3.6000000000d-04
  forc_conv_thr =   1.0000000000d-04
  outdir = './out/'
  prefix = 'aiida'
  pseudo_dir = '/leonardo_scratch/large/userexternal/nalghamd/mc_mace/GNoME-screening/2_space_group_DFT/pseudo_SSSP1.3_aiida'
  tprnfor = .true.
  tstress = .true.
  verbosity = 'high'
  nstep = 180
  max_seconds = 75600
  restart_mode = 'restart'
/
&SYSTEM
  degauss =   2.0000000000d-02
  ecutrho =   1.0800000000d+03
  ecutwfc =   9.0000000000d+01
  ibrav = 0
  nat = 35
  nosym = .false.
  nspin = 2
  ntyp = 3
  occupations = 'smearing'
  smearing = 'cold'
  starting_magnetization(1) =   3.1250000000d-01
  starting_magnetization(2) =   1.0000000000d-01
  starting_magnetization(3) =   1.0000000000d-01
  starting_magnetization(4) =   1.0000000000d-01
/
&ELECTRONS
  conv_thr =   7.2000000000d-09
  electron_maxstep = 300
  mixing_beta = 0.4 !0.7 ! 4.0000000000d-01
/
&IONS
/
&CELL
/
&FCP
/
&RISM
/
ATOMIC_SPECIES
Fe     55.845 Fe.pbesol-spn-kjpaw_psl.0.2.1.UPF
N      14.0067 N.pbesol-theos.UPF
O      15.9994 O.pbesol-n-kjpaw_psl.0.1.UPF

CELL_PARAMETERS (angstrom)
   7.674336641  -0.111447422  -0.097637713
  -0.169029505   7.500984084  -0.031293062
  -0.153297484  -0.090198564   7.448561074

ATOMIC_POSITIONS (crystal)
Fe               1.0000000000        0.5000000000        0.5000000000
Fe               0.5000000000        0.5000000000        0.0000000000
Fe               0.5000000000        1.0000000000        0.5000000000
N                0.3324697783        0.3419740026        0.3256288132
N                0.8350905576        0.1612448093        0.6426593364
N                0.1659458738        0.6377429404        0.8348156155
N                0.6454869310        0.8332178864        0.1605028889
N                0.1649094424        0.8387551907        0.3573406636
N                0.6675302217        0.6580259974        0.6743711868
N                0.3545130690        0.1667821136        0.8394971111
N                0.8340541262        0.3622570596        0.1651843845
O                0.9744802474        0.2575557382        0.6226483868
O                0.0255197526        0.7424442618        0.3773516132
O                0.6191473053        0.9739359918        0.2510362805
O                0.2615107560        0.6134466826        0.9761750195
O                0.3272955182        0.2294946906        0.4462759621
O                0.4528874518        0.3337375810        0.2119174145
O                0.2245704696        0.4610541385        0.3140249046
O                0.6727044818        0.7705053094        0.5537240379
O                0.5471125482        0.6662624190        0.7880825855
O                0.7754295304        0.5389458615        0.6859750954
O                0.7101124147        0.1809532510        0.5286469429
O                0.5365187163        0.7001834653        0.1829414701
O                0.1839569598        0.5281327466        0.7035869014
O                0.2898875853        0.8190467490        0.4713530571
O                0.4634812837        0.2998165347        0.8170585299
O                0.8160430402        0.4718672534        0.2964130986
O                0.1723840296        0.9436399005        0.2359923617
O                0.2364569715        0.1748952026        0.9414506085
O                0.9359980617        0.2435404710        0.1699288194
O                0.8276159704        0.0563600995        0.7640076383
O                0.7635430285        0.8251047974        0.0585493915
O                0.0640019383        0.7564595290        0.8300711806
O                0.3808526947        0.0260640082        0.7489637195
O                0.7384892440        0.3865533174        0.0238249805
K_POINTS automatic
6 6 6 0 0 0
HUBBARD (ortho-atomic)
U Fe-3d 4.5
