&CONTROL
  calculation = 'vc-relax'
  etot_conv_thr =   7.8000000000d-04
  forc_conv_thr =   1.0000000000d-04
  outdir = './out/'
  prefix = 'aiida'
  pseudo_dir = '/leonardo_scratch/large/userexternal/nalghamd/mc_mace/GNoME-screening/2_space_group_DFT/pseudo_SSSP1.3_aiida'
  tprnfor = .true.
  tstress = .true.
  verbosity = 'high'
  nstep = 180
  max_seconds = 75600
/
&SYSTEM
  degauss =   2.0000000000d-02
  ecutrho =   4.0000000000d+02
  ecutwfc =   5.0000000000d+01
  ibrav = 0
  nat = 78
  nosym = .false.
  nspin = 2
  ntyp = 5
  occupations = 'smearing'
  smearing = 'cold'
  starting_magnetization(1) =   1.0000000000d-01
  starting_magnetization(2) =   2.7777777778d-01
  starting_magnetization(3) =   1.0000000000d-01
  starting_magnetization(4) =   1.0000000000d-01
  starting_magnetization(5) =   1.0000000000d-01
/
&ELECTRONS
  conv_thr =   1.5600000000d-08
  electron_maxstep = 250
  mixing_beta =   4.0000000000d-01
/
&IONS
/
&CELL
/
&FCP
/
&RISM
/
ATOMIC_SPECIES
Mg     24.305 Mg.pbesol-n-kjpaw_psl.0.3.0.UPF
Ni     58.6934 ni_pbesol_v1.4.uspp.F.UPF
O      15.9994 O.pbesol-n-kjpaw_psl.0.1.UPF
P      30.973761 P.pbesol-n-rrkjus_psl.1.0.0.UPF
Sr     87.62 sr_pbesol_v1.uspp.F.UPF
ATOMIC_POSITIONS crystal
Sr           0.8524610000       0.1667920000       0.8493740000
Sr           0.3525330000       0.3344570000       0.1508530000
Sr           0.1475390000       0.8332080000       0.1506260000
Sr           0.6474670000       0.6655430000       0.8491470000
Sr           0.1156970000       0.6947240000       0.5046280000
Sr           0.6158340000       0.8053510000       0.4952690000
Sr           0.8843030000       0.3052760000       0.4953720000
Sr           0.3841660000       0.1946490000       0.5047310000
Sr           0.7270440000       0.1672210000       0.1905250000
Sr           0.2266840000       0.3345700000       0.8097210000
Sr           0.2729560000       0.8327790000       0.8094750000
Sr           0.7733160000       0.6654300000       0.1902790000
Mg           0.8884380000       0.8729660000       0.6757820000
Mg           0.3885930000       0.6273500000       0.3242280000
Mg           0.1115620000       0.1270340000       0.3242180000
Mg           0.6114070000       0.3726500000       0.6757720000
Mg           0.5000000000       0.0000000000       0.0000000000
Ni           0.0000000000       0.5000000000       0.0000000000
P            0.4310200000       0.7108360000       0.0425960000
P            0.9312180000       0.7881160000       0.9570150000
P            0.5689800000       0.2891640000       0.9574040000
P            0.0687820000       0.2118840000       0.0429850000
P            0.0729100000       0.5076480000       0.2871050000
P            0.5728040000       0.9922470000       0.7126310000
P            0.9270900000       0.4923520000       0.7128950000
P            0.4271960000       0.0077530000       0.2873690000
P            0.3982760000       0.5607770000       0.6256320000
P            0.8983760000       0.9390440000       0.3740700000
P            0.6017240000       0.4392230000       0.3743680000
P            0.1016240000       0.0609560000       0.6259300000
O            0.5746500000       0.7691170000       0.0561720000
O            0.0747600000       0.7291570000       0.9430810000
O            0.4253500000       0.2308830000       0.9438280000
O            0.9252400000       0.2708430000       0.0569190000
O            0.3819260000       0.6126710000       0.1508200000
O            0.8823440000       0.8873700000       0.8493180000
O            0.6180740000       0.3873290000       0.8491800000
O            0.1176560000       0.1126300000       0.1506820000
O            0.4180480000       0.6318380000       0.9363350000
O            0.9182000000       0.8668450000       0.0633340000
O            0.5819520000       0.3681620000       0.0636650000
O            0.0818000000       0.1331550000       0.9366660000
O            0.3434500000       0.8564370000       0.0201760000
O            0.8434540000       0.6425580000       0.9791060000
O            0.6565500000       0.1435630000       0.9798240000
O            0.1565460000       0.3574420000       0.0208940000
O            0.1881760000       0.6111050000       0.3146870000
O            0.6879720000       0.8879130000       0.6856550000
O            0.8118240000       0.3888950000       0.6853130000
O            0.3120280000       0.1120870000       0.3143450000
O            0.9624250000       0.5275270000       0.3742870000
O            0.4623680000       0.9721630000       0.6255540000
O            0.0375750000       0.4724730000       0.6257130000
O            0.5376320000       0.0278370000       0.3744460000
O            0.1246050000       0.3487210000       0.2946250000
O            0.6250210000       0.1510790000       0.7041750000
O            0.8753950000       0.6512790000       0.7053750000
O            0.3749790000       0.8489210000       0.2958250000
O            0.0192540000       0.5667830000       0.1657220000
O            0.5193140000       0.9354940000       0.8343310000
O            0.1334630000       0.1303510000       0.5016310000
O            0.6337100000       0.3698760000       0.4985320000
O            0.8665370000       0.8696490000       0.4983690000
O            0.3662900000       0.6301240000       0.5014680000
O            0.9564730000       0.1017840000       0.6552460000
O            0.4568240000       0.3982010000       0.3449860000
O            0.0435270000       0.8982160000       0.3447540000
O            0.5431760000       0.6017990000       0.6550140000
O            0.1017130000       0.8873100000       0.6419990000
O            0.6015880000       0.6128260000       0.3580910000
O            0.8982870000       0.1126900000       0.3580010000
O            0.3984120000       0.3871740000       0.6419090000
O            0.2064390000       0.1125210000       0.7059460000
O            0.7068690000       0.3877590000       0.2944350000
O            0.7935610000       0.8874790000       0.2940540000
O            0.2931310000       0.6122410000       0.7055650000
O            0.4806860000       0.0645060000       0.1656690000
O            0.9807460000       0.4332170000       0.8342780000
K_POINTS automatic
5 5 4 0 0 0
CELL_PARAMETERS angstrom
     10.1381686000       0.0000000000       0.0000000000
      0.0099189165       9.1398305378       0.0000000000
      0.0056239373       1.6207171613      11.7290150928
HUBBARD (ortho-atomic)
U Ni-3d 5.8
