&CONTROL
  calculation = 'vc-relax'
  etot_conv_thr =   6.0000000000d-04
  forc_conv_thr =   1.0000000000d-04
  outdir = './out/'
  prefix = 'aiida'
  pseudo_dir = '/leonardo_scratch/large/userexternal/nalghamd/mc_mace/GNoME-screening/2_space_group_DFT/pseudo_SSSP1.3_aiida'
  tprnfor = .true.
  tstress = .true.
  verbosity = 'high'
  nstep = 70
  max_seconds = 75600
  restart_mode = 'restart'
/
&SYSTEM
  degauss =   2.0000000000d-02
  ecutrho =   1.0800000000d+03
  ecutwfc =   9.0000000000d+01
  ibrav = 0
  nat = 52
  nosym = .false.
  nspin = 2
  ntyp = 5
  occupations = 'smearing'
  smearing = 'cold'
  starting_magnetization(1) =   1.0000000000d-01
  starting_magnetization(2) =   3.1250000000d-01
  starting_magnetization(3) =   1.0000000000d-01
  starting_magnetization(4) =   1.0000000000d-01
  starting_magnetization(5) =   1.0000000000d-01
  starting_magnetization(6) =   1.0000000000d-01
/
&ELECTRONS
  conv_thr =   1.2000000000d-08
  electron_maxstep = 250
  mixing_beta = 0.7  ! 4.0000000000d-01
/
&IONS
/
&CELL
/
&FCP
/
&RISM
/
ATOMIC_SPECIES
F      18.9984032 f_pbesol_v1.4.uspp.F.UPF
Fe     55.845 Fe.pbesol-spn-kjpaw_psl.0.2.1.UPF
Mg     24.305 Mg.pbesol-n-kjpaw_psl.0.3.0.UPF
O      15.9994 O.pbesol-n-kjpaw_psl.0.1.UPF
P      30.973761 P.pbesol-n-rrkjus_psl.1.0.0.UPF
ATOMIC_POSITIONS crystal
Mg           0.0000000000       0.0000000000       0.0000000000
Fe           0.0004830000       0.2487400000       0.8366000000
Fe           0.5002370000       0.7499670000       0.6647780000
Fe           0.9995170000       0.7512600000       0.1634000000
Fe           0.4997630000       0.2500330000       0.3352220000
Fe           0.5000000000       0.5000000000       0.5000000000
Fe           0.5000000000       0.0000000000       0.5000000000
Fe           0.0000000000       0.5000000000       0.0000000000
P            0.2178100000       0.2480760000       0.5793540000
P            0.2818520000       0.7496920000       0.9207750000
P            0.7179340000       0.7527670000       0.9210290000
P            0.7821280000       0.2513790000       0.5792430000
P            0.7821900000       0.7519240000       0.4206460000
P            0.7181480000       0.2503080000       0.0792250000
P            0.2820660000       0.2472330000       0.0789710000
P            0.2178720000       0.7486210000       0.4207570000
O            0.0001180000       0.2499530000       0.5213440000
O            0.4992480000       0.7516220000       0.9789720000
O            0.9998820000       0.7500470000       0.4786560000
O            0.5007520000       0.2483780000       0.0210280000
O            0.1744400000       0.3282420000       0.9872080000
O            0.3265430000       0.8286770000       0.5122910000
O            0.6733370000       0.6716870000       0.5119900000
O            0.8285160000       0.1679090000       0.9903190000
O            0.8255600000       0.6717580000       0.0127920000
O            0.6734570000       0.1713230000       0.4877090000
O            0.3266630000       0.3283130000       0.4880100000
O            0.1714840000       0.8320910000       0.0096810000
O            0.2797740000       0.1090440000       0.5833370000
O            0.2198790000       0.6105280000       0.9182070000
O            0.7815210000       0.8909910000       0.9172110000
O            0.7198760000       0.3902890000       0.5830400000
O            0.7202260000       0.8909560000       0.4166630000
O            0.7801210000       0.3894720000       0.0817930000
O            0.2184790000       0.1090090000       0.0827890000
O            0.2801240000       0.6097110000       0.4169600000
O            0.2050310000       0.3080750000       0.7011360000
O            0.2952220000       0.8089370000       0.7986790000
O            0.7047160000       0.6909690000       0.8000080000
O            0.7954820000       0.1906880000       0.7006700000
O            0.7949690000       0.6919250000       0.2988640000
O            0.7047780000       0.1910630000       0.2013210000
O            0.2952840000       0.3090310000       0.1999920000
O            0.2045180000       0.8093120000       0.2993300000
F            0.1071890000       0.0708970000       0.8510100000
F            0.3833560000       0.5758430000       0.6555660000
F            0.6165800000       0.9240620000       0.6555320000
F            0.8847980000       0.4230630000       0.8438540000
F            0.8928110000       0.9291030000       0.1489900000
F            0.6166440000       0.4241570000       0.3444340000
F            0.3834200000       0.0759380000       0.3444680000
F            0.1152020000       0.5769370000       0.1561460000
K_POINTS automatic
7 4 4 0 0 0
CELL_PARAMETERS angstrom
      6.9441990000       0.0000000000       0.0000000000
      0.0000000000      10.5790220000       0.0000000000
      0.0000000000       0.0000000000      11.4141590000
HUBBARD (ortho-atomic)
U Fe-3d 4.5

