&CONTROL
  calculation = 'vc-relax'
  etot_conv_thr =   3.2000000000d-04
  forc_conv_thr =   1.0000000000d-04
  outdir = './out/'
  prefix = 'aiida'
  pseudo_dir = '/leonardo_scratch/large/userexternal/nalghamd/mc_mace/GNoME-screening/2_space_group_DFT/pseudo_SSSP1.3_aiida'
  tprnfor = .true.
  tstress = .true.
  verbosity = 'high'
  nstep = 50
  max_seconds = 75600
  restart_mode = 'restart'
/
&SYSTEM
  degauss =   2.0000000000d-02
  ecutrho =   4.0000000000d+02
  ecutwfc =   5.0000000000d+01
  ibrav = 0
  nat = 30
  nosym = .false.
  nspin = 2
  ntyp = 3
  occupations = 'smearing'
  smearing = 'cold'
  starting_magnetization(1) =   1.0000000000d-01
  starting_magnetization(2) =   2.7777777778d-01
  starting_magnetization(3) =   1.0000000000d-01
  starting_magnetization(4) =   3.8461538462d-01
/
&ELECTRONS
  conv_thr =   6.4000000000d-09
  electron_maxstep = 250
  mixing_beta = 0.7 ! 4.0000000000d-01
/
&IONS
/
&CELL
/
&FCP
/
&RISM
/
ATOMIC_SPECIES
Ni     58.6934 ni_pbesol_v1.4.uspp.F.UPF
O      15.9994 O.pbesol-n-kjpaw_psl.0.1.UPF
V      50.9415 v_pbesol_v1.4.uspp.F.UPF
ATOMIC_POSITIONS crystal
V            0.1128920000       0.0453890000       0.3044930000
V            0.8871080000       0.9546110000       0.6955070000
V            0.2277300000       0.4274700000       0.6121190000
V            0.7722700000       0.5725300000       0.3878810000
V            0.7658370000       0.3365890000       0.0454020000
V            0.2341630000       0.6634110000       0.9545980000
Ni           0.7564590000       0.4329120000       0.7063130000
Ni           0.2435410000       0.5670880000       0.2936870000
Ni           0.2033700000       0.1846140000       0.0197790000
Ni           0.7966300000       0.8153860000       0.9802210000
O            0.0660760000       0.1904180000       0.4773900000
O            0.7266920000       0.1106630000       0.6570070000
O            0.5167670000       0.2375930000       0.0424560000
O            0.2300790000       0.2469320000       0.2429270000
O            0.8657400000       0.9078770000       0.2050920000
O            0.8698930000       0.1273720000       0.9848450000
O            0.0957690000       0.5197420000       0.7568020000
O            0.9042310000       0.4802580000       0.2431980000
O            0.7232410000       0.3953090000       0.4796120000
O            0.2767590000       0.6046910000       0.5203880000
O            0.1342600000       0.0921230000       0.7949080000
O            0.7850880000       0.4964460000       0.9319480000
O            0.4832330000       0.7624070000       0.9575440000
O            0.9339240000       0.8095820000       0.5226100000
O            0.7699210000       0.7530680000       0.7570730000
O            0.2733080000       0.8893370000       0.3429930000
O            0.5547490000       0.6347850000       0.3231750000
O            0.1301070000       0.8726280000       0.0151550000
O            0.4452510000       0.3652150000       0.6768250000
O            0.2149120000       0.5035540000       0.0680520000
K_POINTS automatic
7 7 5 0 0 0
CELL_PARAMETERS angstrom
      6.7782150500       0.0000000000       0.0000000000
     -1.4211520773       6.6872012968       0.0000000000
     -1.7291807010      -2.9492099526       9.0940956910
HUBBARD (ortho-atomic)
U Ni-3d 5.8
U V-3d 3.9
