&CONTROL
  calculation = 'vc-relax'
  etot_conv_thr =   6.8000000000d-04
  forc_conv_thr =   1.0000000000d-04
  outdir = './out/'
  prefix = 'aiida'
  pseudo_dir = '/leonardo_scratch/large/userexternal/nalghamd/mc_mace/GNoME-screening/2_space_group_DFT/pseudo_SSSP1.3_aiida'
  tprnfor = .true.
  tstress = .true.
  verbosity = 'high'
  nstep = 180
  max_seconds = 75600
/
&SYSTEM
  degauss =   2.0000000000d-02
  ecutrho =   4.0000000000d+02
  ecutwfc =   5.0000000000d+01
  ibrav = 0
  nat = 60
  nosym = .false.
  nspin = 2
  ntyp = 3
  occupations = 'smearing'
  smearing = 'cold'
  starting_magnetization(1) =   1.0000000000d-01
  starting_magnetization(2) =   3.5714285714d-01
  starting_magnetization(3) =   1.0000000000d-01
  starting_magnetization(4) =   1.0000000000d-01
/
&ELECTRONS
  conv_thr =   1.3600000000d-08
  electron_maxstep = 250
  mixing_beta = 0.7 !0.3 !0.2 !0.7  !4.0000000000d-01
  diagonalization = 'cg'
/
&IONS
/
&CELL
/
&FCP
/
&RISM
/
ATOMIC_SPECIES
Cr     51.9961 cr_pbesol_v1.5.uspp.F.UPF
O      15.9994 O.pbesol-n-kjpaw_psl.0.1.UPF
P      30.973761 P.pbesol-n-rrkjus_psl.1.0.0.UPF
ATOMIC_POSITIONS crystal
Cr           0.6447510000       0.0530310000       0.6222490000
Cr           0.1447510000       0.9469690000       0.8777510000
Cr           0.3552490000       0.9469690000       0.3777510000
Cr           0.8552490000       0.0530310000       0.1222490000
P            0.6565310000       0.5733530000       0.5875900000
P            0.1565310000       0.4266470000       0.9124100000
P            0.3434690000       0.4266470000       0.4124100000
P            0.8434690000       0.5733530000       0.0875900000
P            0.2971330000       0.8294910000       0.5482010000
P            0.7971330000       0.1705090000       0.9517990000
P            0.7028670000       0.1705090000       0.4517990000
P            0.2028670000       0.8294910000       0.0482010000
P            0.4870610000       0.8159010000       0.7734210000
P            0.9870610000       0.1840990000       0.7265790000
P            0.5129390000       0.1840990000       0.2265790000
P            0.0129390000       0.8159010000       0.2734210000
O            0.3719860000       0.0189300000       0.5811180000
O            0.8719860000       0.9810700000       0.9188820000
O            0.6280140000       0.9810700000       0.4188820000
O            0.1280140000       0.0189300000       0.0811180000
O            0.7024560000       0.7300330000       0.6382530000
O            0.2024560000       0.2699670000       0.8617470000
O            0.2975440000       0.2699670000       0.3617470000
O            0.7975440000       0.7300330000       0.1382530000
O            0.1597700000       0.6904010000       0.5965070000
O            0.6597700000       0.3095990000       0.9034930000
O            0.8402300000       0.3095990000       0.4034930000
O            0.3402300000       0.6904010000       0.0965070000
O            0.5657440000       0.3658130000       0.6251930000
O            0.0657440000       0.6341870000       0.8748070000
O            0.4342560000       0.6341870000       0.3748070000
O            0.9342560000       0.3658130000       0.1251930000
O            0.8278510000       0.5343540000       0.5407070000
O            0.3278510000       0.4656460000       0.9592930000
O            0.1721490000       0.4656460000       0.4592930000
O            0.6721490000       0.5343540000       0.0407070000
O            0.7789630000       0.0966950000       0.5265870000
O            0.2789630000       0.9033050000       0.9734130000
O            0.2210370000       0.9033050000       0.4734130000
O            0.7210370000       0.0966950000       0.0265870000
O            0.4897250000       0.6875940000       0.5351630000
O            0.9897250000       0.3124060000       0.9648370000
O            0.5102750000       0.3124060000       0.4648370000
O            0.0102750000       0.6875940000       0.0351630000
O            0.5335460000       0.0145350000       0.7192900000
O            0.0335460000       0.9854650000       0.7807100000
O            0.4664540000       0.9854650000       0.2807100000
O            0.9664540000       0.0145350000       0.2192900000
O            0.3325860000       0.6714400000       0.7486870000
O            0.8325860000       0.3285600000       0.7513130000
O            0.6674140000       0.3285600000       0.2513130000
O            0.1674140000       0.6714400000       0.2486870000
O            0.9180480000       0.0942640000       0.6589150000
O            0.4180480000       0.9057360000       0.8410850000
O            0.0819520000       0.9057360000       0.3410850000
O            0.5819520000       0.0942640000       0.1589150000
O            0.6737270000       0.6855020000       0.7967350000
O            0.1737270000       0.3144980000       0.7032650000
O            0.3262730000       0.3144980000       0.2032650000
O            0.8262730000       0.6855020000       0.2967350000
K_POINTS automatic
7 7 3 0 0 0
CELL_PARAMETERS angstrom
      6.7455710000       0.0000000000       0.0000000000
      0.0000000000       6.4884095100       0.0000000000
      0.0000000000       3.1102441022      19.1203206809
HUBBARD (ortho-atomic)
U Cr-3d 3.0
