&CONTROL
  calculation = 'vc-relax'
  etot_conv_thr =   3.6000000000d-04
  forc_conv_thr =   1.0000000000d-04
  outdir = './out/'
  prefix = 'aiida'
  pseudo_dir = '/leonardo_scratch/large/userexternal/nalghamd/mc_mace/GNoME-screening/2_space_group_DFT/pseudo_SSSP1.3_aiida'
  tprnfor = .true.
  tstress = .true.
  verbosity = 'high'
  nstep = 180
  max_seconds = 75600
  restart_mode = 'restart'
/
&SYSTEM
  degauss =   2.0000000000d-02
  ecutrho =   4.0000000000d+02
  ecutwfc =   5.0000000000d+01
  ibrav = 0
  nat = 33
  nosym = .false.
  nspin = 2
  ntyp = 3
  occupations = 'smearing'
  smearing = 'cold'
  starting_magnetization(1) =   1.0000000000d-01
  starting_magnetization(2) =   2.7777777778d-01
  starting_magnetization(3) =   1.0000000000d-01
  starting_magnetization(4) =   1.0000000000d-01
/
&ELECTRONS
  conv_thr =   7.2000000000d-09
  electron_maxstep = 250
  mixing_beta = 0.7  !4.0000000000d-01
/
&IONS
/
&CELL
/
&FCP
/
&RISM
/
ATOMIC_SPECIES
Ni     58.6934 ni_pbesol_v1.4.uspp.F.UPF
O      15.9994 O.pbesol-n-kjpaw_psl.0.1.UPF
P      30.973761 P.pbesol-n-rrkjus_psl.1.0.0.UPF

CELL_PARAMETERS (angstrom)
   7.463546823  -0.012718030  -0.048702595
   2.510359277   7.241860582  -0.023831816
   3.964995735   2.796491218   9.011656630

ATOMIC_POSITIONS (crystal)
Ni               0.5000000000        0.0000000000        0.0000000000
P                0.8012328510        0.8240813831        0.6935737365
P                0.1920739179        0.1848620602        0.8158886592
P                0.1987671490        0.1759186169        0.3064262635
P                0.8079260821        0.8151379398        0.1841113408
P                0.7718266189        0.2104993445        0.4739955535
P                0.7737372389        0.2248180378        0.0256931325
P                0.2281733811        0.7895006555        0.5260044465
P                0.2262627611        0.7751819622        0.9743068675
O                0.0304029124        0.8181883670        0.6568846366
O                0.1966867276        0.9639140122        0.8386815295
O                0.9695970876        0.1818116330        0.3431153634
O                0.8033132724        0.0360859878        0.1613184705
O                0.7409991478        0.9937057262        0.5586236248
O                0.9984411235        0.2467430638        0.9417445270
O                0.2590008522        0.0062942738        0.4413763752
O                0.0015588765        0.7532569362        0.0582554730
O                0.6937314378        0.8723017492        0.8363929800
O                0.1657108875        0.3040992386        0.6677480229
O                0.3062685622        0.1276982508        0.1636070200
O                0.8342891125        0.6959007614        0.3322519771
O                0.7746531629        0.6408977073        0.6881379370
O                0.3709494027        0.1902509248        0.8527948708
O                0.2253468371        0.3591022927        0.3118620630
O                0.6290505973        0.8097490752        0.1472051292
O                0.7895907732        0.2965966555        0.5765479733
O                0.6848810766        0.1804791254        0.9327296712
O                0.2104092268        0.7034033445        0.4234520267
O                0.3151189234        0.8195208746        0.0672703288
O                0.3975387581        0.6774936290        0.5910327848
O                0.3311543158        0.6027166303        0.9183193468
O                0.6024612419        0.3225063710        0.4089672152
O                0.6688456842        0.3972833697        0.0816806532
K_POINTS automatic
7 7 5 0 0 0
HUBBARD (ortho-atomic)
U Ni-3d 5.8
