&CONTROL
  calculation = 'vc-relax'
  etot_conv_thr =   3.6000000000d-04
  forc_conv_thr =   1.0000000000d-04
  outdir = './out/'
  prefix = 'aiida'
  pseudo_dir = '/leonardo_scratch/large/userexternal/nalghamd/mc_mace/GNoME-screening/2_space_group_DFT/pseudo_SSSP1.3_aiida'
  tprnfor = .true.
  tstress = .true.
  verbosity = 'high'
  nstep = 180
  max_seconds = 75600
/
&SYSTEM
  degauss =   2.0000000000d-02
  ecutrho =   1.0800000000d+03
  ecutwfc =   9.0000000000d+01
  ibrav = 0
  nat = 33
  nosym = .false.
  nspin = 2
  ntyp = 3
  occupations = 'smearing'
  smearing = 'cold'
  starting_magnetization(1) =   1.0000000000d-01
  starting_magnetization(2) =   3.1250000000d-01
  starting_magnetization(3) =   1.0000000000d-01
  starting_magnetization(4) =   1.0000000000d-01
/
&ELECTRONS
  conv_thr =   7.2000000000d-09
  electron_maxstep = 300
  mixing_beta = 0.3 !0.7  !4.0000000000d-01
  diagonalization = 'cg'
/
&IONS
/
&CELL
/
&FCP
/
&RISM
/
ATOMIC_SPECIES
Fe     55.845 Fe.pbesol-spn-kjpaw_psl.0.2.1.UPF
O      15.9994 O.pbesol-n-kjpaw_psl.0.1.UPF
P      30.973761 P.pbesol-n-rrkjus_psl.1.0.0.UPF

CELL_PARAMETERS (angstrom)
   7.463363724  -0.064758855  -0.091659927
   2.482534039   7.188500787  -0.129601509
   3.979795920   2.684125704   8.835039251

ATOMIC_POSITIONS (crystal)
Fe               0.5000000000        0.0000000000        0.0000000000
P                0.7997078957        0.8228305744        0.6953466179
P                0.1885226087        0.1843198124        0.8121047002
P                0.2002921043        0.1771694256        0.3046533821
P                0.8114773913        0.8156801876        0.1878952998
P                0.7715068819        0.2101477911        0.4749041244
P                0.7712431934        0.2258349532        0.0300437628
P                0.2284931181        0.7898522089        0.5250958756
P                0.2287568066        0.7741650468        0.9699562372
O                0.0286085193        0.8233926860        0.6594452702
O                0.1864048103        0.9631207924        0.8335414948
O                0.9713914807        0.1766073140        0.3405547298
O                0.8135951897        0.0368792076        0.1664585052
O                0.7405637855        0.9915714679        0.5568315741
O               -0.0070511693        0.2538995436        0.9374987586
O                0.2594362145        0.0084285321        0.4431684259
O                1.0070511693        0.7461004564        0.0625012414
O                0.6930704167        0.8766129023        0.8401436740
O                0.1771004465        0.3064840397        0.6609013791
O                0.3069295833        0.1233870977        0.1598563260
O                0.8228995535        0.6935159603        0.3390986209
O                0.7634904382        0.6365468188        0.7022896544
O                0.3649456363        0.1828288448        0.8547745068
O                0.2365095618        0.3634531812        0.2977103456
O                0.6350543637        0.8171711552        0.1452254932
O                0.7842124808        0.3064944002        0.5763990228
O                0.6863146119        0.1701905461        0.9385557997
O                0.2157875192        0.6935055998        0.4236009772
O                0.3136853881        0.8298094539        0.0614442003
O                0.3973128417        0.6690782455        0.5876136786
O                0.3433169823        0.6020992525        0.9134745529
O                0.6026871583        0.3309217545        0.4123863214
O                0.6566830177        0.3979007475        0.0865254471
K_POINTS automatic
7 7 5 0 0 0
HUBBARD (ortho-atomic)
U Fe-3d 4.5
