&CONTROL
  calculation = 'vc-relax'
  etot_conv_thr =   2.8000000000d-04
  forc_conv_thr =   1.0000000000d-04
  outdir = './out/'
  prefix = 'aiida'
  pseudo_dir = '/leonardo_scratch/large/userexternal/nalghamd/mc_mace/GNoME-screening/2_space_group_DFT/pseudo_SSSP1.3_aiida'
  tprnfor = .true.
  tstress = .true.
  verbosity = 'high'
  nstep = 180
  max_seconds = 75600
/
&SYSTEM
  degauss =   2.0000000000d-02
  ecutrho =   4.0000000000d+02
  ecutwfc =   5.0000000000d+01
  ibrav = 0
  nat = 28
  nosym = .false.
  nspin = 2
  ntyp = 4
  occupations = 'smearing'
  smearing = 'cold'
  starting_magnetization(1) =   1.0000000000d-01
  starting_magnetization(2) =   1.0000000000d-01
  starting_magnetization(3) =   1.0000000000d-01
  starting_magnetization(4) =   3.8461538462d-01
/
&ELECTRONS
  conv_thr =   5.6000000000d-09
  electron_maxstep = 250
  mixing_beta =   4.0000000000d-01
/
&IONS
/
&CELL
/
&FCP
/
&RISM
/
ATOMIC_SPECIES
Na     22.98977 na_pbesol_v1.5.uspp.F.UPF
O      15.9994 O.pbesol-n-kjpaw_psl.0.1.UPF
P      30.973761 P.pbesol-n-rrkjus_psl.1.0.0.UPF
V      50.9415 v_pbesol_v1.4.uspp.F.UPF
ATOMIC_POSITIONS crystal
Na           0.9503810000       0.0496190000       0.2500000000
Na           0.0496190000       0.9503810000       0.7500000000
Na           0.2893760000       0.3728200000       0.1341620000
Na           0.6271800000       0.7106240000       0.3658380000
Na           0.3728200000       0.2893760000       0.6341620000
Na           0.7106240000       0.6271800000       0.8658380000
V           -0.0000000000      -0.0000000000       0.5000000000
V            0.0000000000       0.0000000000       0.0000000000
P            0.6479160000       0.6880420000       0.1129780000
P            0.6880420000       0.6479160000       0.6129780000
P            0.3119580000       0.3520840000       0.3870220000
P            0.3520840000       0.3119580000       0.8870220000
O            0.2741700000       0.0725890000       0.9146670000
O            0.9274110000       0.7258300000       0.5853330000
O            0.7258300000       0.9274110000       0.0853330000
O            0.0725890000       0.2741700000       0.4146670000
O            0.7045660000       0.1463290000       0.8851210000
O            0.8536710000       0.2954340000       0.6148790000
O            0.2954340000       0.8536710000       0.1148790000
O            0.1463290000       0.7045660000       0.3851210000
O            0.2177640000       0.5625220000       0.9628320000
O            0.4374780000       0.7822360000       0.5371680000
O            0.7822360000       0.4374780000       0.0371680000
O            0.5625220000       0.2177640000       0.4628320000
O            0.4490270000       0.2215400000       0.2900300000
O            0.7784600000       0.5509730000       0.2099700000
O            0.5509730000       0.7784600000       0.7099700000
O            0.2215400000       0.4490270000       0.7900300000
K_POINTS automatic
10 10 3 0 0 0
CELL_PARAMETERS angstrom
      5.2839635200       0.0000000000       0.0000000000
      2.8394416604       4.4562123891       0.0000000000
      0.3601829572       0.1975842387      14.0959217815
HUBBARD (ortho-atomic)
U V-3d 3.9
