&CONTROL
  calculation = 'vc-relax'
  etot_conv_thr =   2.6000000000d-04
  forc_conv_thr =   1.0000000000d-04
  outdir = './out/'
  prefix = 'aiida'
  pseudo_dir = './pseudo/'
  tprnfor = .true.
  tstress = .true.
  verbosity = 'high'
  max_seconds = 82800
  nstep = 100
  restart_mode = 'restart'
/
&SYSTEM
  degauss =   2.0000000000d-02
  ecutrho =   4.0000000000d+02
  ecutwfc =   5.0000000000d+01
  ibrav = 0
  nat = 22
  nosym = .false.
  nspin = 2
  ntyp = 3
  occupations = 'smearing'
  smearing = 'cold'
  starting_magnetization(1) =   1.0000000000d-01
  starting_magnetization(2) =   2.9411764706d-01
  starting_magnetization(3) =   1.0000000000d-01
  starting_magnetization(4) =   1.0000000000d-01
/
&ELECTRONS
  conv_thr =   5.2000000000d-09
  electron_maxstep = 200
  mixing_beta = 0.9 !0.4 !0.7 ! 4.0000000000d-01
/
&IONS
/
&CELL
/
&FCP
/
&RISM
/
ATOMIC_SPECIES
Co     58.933195 co_pbesol_v1.2.uspp.F.UPF
O      15.9994 O.pbesol-n-kjpaw_psl.0.1.UPF
P      30.973761 P.pbesol-n-rrkjus_psl.1.0.0.UPF
ATOMIC_POSITIONS crystal
Co           0.5000000000       0.5000000000       0.5000000000
Co           0.0000000000       0.5000000000       0.0000000000
P            0.0826030000       0.7272630000       0.5944580000
P            0.5826030000       0.2727370000       0.9055420000
P            0.9173970000       0.2727370000       0.4055420000
P            0.4173970000       0.7272630000       0.0944580000
O            0.2357440000       0.5409690000       0.6529700000
O            0.7357440000       0.4590310000       0.8470300000
O            0.7642560000       0.4590310000       0.3470300000
O            0.2642560000       0.5409690000       0.1529700000
O            0.1622870000       0.9110400000       0.6753950000
O            0.6622870000       0.0889600000       0.8246050000
O            0.8377130000       0.0889600000       0.3246050000
O            0.3377130000       0.9110400000       0.1753950000
O            0.2951570000       0.7367790000       0.9655170000
O            0.7951570000       0.2632210000       0.5344830000
O            0.7339180000       0.6994250000       0.0947700000
O            0.2339180000       0.3005750000       0.4052300000
O            0.2660820000       0.3005750000       0.9052300000
O            0.7660820000       0.6994250000       0.5947700000
O            0.2048430000       0.7367790000       0.4655170000
O            0.7048430000       0.2632210000       0.0344830000
K_POINTS automatic
9 7 4 0 0 0
CELL_PARAMETERS angstrom
      4.8494450000       0.0000000000       0.0000000000
      0.0000000000       6.6185081100       0.0000000000
      0.0000000000      -0.2484161097      11.0890618520
HUBBARD (ortho-atomic)
U Co-3d 5.2
