&CONTROL
  calculation = 'vc-relax'
  etot_conv_thr =   3.6000000000d-04
  forc_conv_thr =   1.0000000000d-04
  outdir = './out/'
  prefix = 'aiida'
  pseudo_dir = '/leonardo_scratch/large/userexternal/nalghamd/mc_mace/GNoME-screening/2_space_group_DFT/pseudo_SSSP1.3_aiida'
  tprnfor = .true.
  tstress = .true.
  verbosity = 'high'
  nstep = 100
  max_seconds = 75600
/
&SYSTEM
  degauss =   2.0000000000d-02
  ecutrho =   4.0000000000d+02
  ecutwfc =   5.0000000000d+01
  ibrav = 0
  nat = 33
  nosym = .false.
  nspin = 2
  ntyp = 3
  occupations = 'smearing'
  smearing = 'cold'
  starting_magnetization(1) =   1.0000000000d-01
  starting_magnetization(2) =   2.9411764706d-01
  starting_magnetization(3) =   1.0000000000d-01
  starting_magnetization(4) =   1.0000000000d-01
/
&ELECTRONS
  conv_thr =   7.2000000000d-09
  electron_maxstep = 250
  mixing_beta = 0.7 !4.0000000000d-01
  diagonalization = 'cg'
/
&IONS
/
&CELL
/
&FCP
/
&RISM
/
ATOMIC_SPECIES
Co     58.933195 co_pbesol_v1.2.uspp.F.UPF
O      15.9994 O.pbesol-n-kjpaw_psl.0.1.UPF
P      30.973761 P.pbesol-n-rrkjus_psl.1.0.0.UPF
ATOMIC_POSITIONS crystal
Co           0.5000000000       0.0000000000       0.0000000000
P            0.7998050000       0.8234450000       0.6952680000
P            0.1881630000       0.1883040000       0.8137370000
P            0.2001950000       0.1765550000       0.3047320000
P            0.8118370000       0.8116960000       0.1862630000
P            0.7664700000       0.2135640000       0.4755370000
P            0.7768910000       0.2281050000       0.0240280000
P            0.2335300000       0.7864360000       0.5244630000
P            0.2231090000       0.7718950000       0.9759720000
O            0.0309690000       0.8125630000       0.6558530000
O            0.1984480000       0.9649840000       0.8421950000
O            0.9690310000       0.1874370000       0.3441470000
O            0.8015520000       0.0350160000       0.1578050000
O            0.7406970000       0.9948390000       0.5592130000
O            0.0003450000       0.2493780000       0.9418160000
O            0.2593030000       0.0051610000       0.4407870000
O            0.9996550000       0.7506220000       0.0581840000
O            0.6946290000       0.8709390000       0.8349920000
O            0.1599330000       0.2991620000       0.6691080000
O            0.3053710000       0.1290610000       0.1650080000
O            0.8400670000       0.7008380000       0.3308920000
O            0.7770540000       0.6431330000       0.6829290000
O            0.3628530000       0.2033360000       0.8422960000
O            0.2229460000       0.3568670000       0.3170710000
O            0.6371470000       0.7966640000       0.1577040000
O            0.7915740000       0.2947380000       0.5766410000
O            0.6931300000       0.1936310000       0.9280380000
O            0.2084260000       0.7052620000       0.4233590000
O            0.3068700000       0.8063690000       0.0719620000
O            0.3947250000       0.6813040000       0.5899840000
O            0.3262920000       0.6052790000       0.9180290000
O            0.6052750000       0.3186960000       0.4100160000
O            0.6737080000       0.3947210000       0.0819710000
K_POINTS automatic
7 7 5 0 0 0
CELL_PARAMETERS angstrom
      7.6089063500       0.0000000000       0.0000000000
      2.5844292161       7.2724789950       0.0000000000
      4.1484193981       2.8538742542       9.1831977253
HUBBARD (ortho-atomic)
U Co-3d 5.2
