&CONTROL
  calculation = 'vc-relax'
  etot_conv_thr =   2.8000000000d-04
  forc_conv_thr =   1.0000000000d-04
  outdir = './out/'
  prefix = 'aiida'
  pseudo_dir = '/leonardo_scratch/large/userexternal/nalghamd/mc_mace/GNoME-screening/2_space_group_DFT/pseudo_SSSP1.3_aiida'
  tprnfor = .true.
  tstress = .true.
  verbosity = 'high'
  nstep = 180
  max_seconds = 75600
/
&SYSTEM
  degauss =   2.0000000000d-02
  ecutrho =   4.0000000000d+02
  ecutwfc =   5.0000000000d+01
  ibrav = 0
  nat = 28
  nosym = .false.
  nspin = 2
  ntyp = 4
  occupations = 'smearing'
  smearing = 'cold'
  starting_magnetization(1) =   3.5714285714d-01
  starting_magnetization(2) =   1.0000000000d-01
  starting_magnetization(3) =   1.0000000000d-01
  starting_magnetization(4) =   1.0000000000d-01
/
&ELECTRONS
  conv_thr =   5.6000000000d-09
  electron_maxstep = 250
  mixing_beta =   4.0000000000d-01
/
&IONS
/
&CELL
/
&FCP
/
&RISM
/
ATOMIC_SPECIES
Cr     51.9961 cr_pbesol_v1.5.uspp.F.UPF
Na     22.98977 na_pbesol_v1.5.uspp.F.UPF
O      15.9994 O.pbesol-n-kjpaw_psl.0.1.UPF
P      30.973761 P.pbesol-n-rrkjus_psl.1.0.0.UPF
ATOMIC_POSITIONS crystal
Na           0.9498280000       0.0501720000       0.2500000000
Na           0.0501720000       0.9498280000       0.7500000000
Na           0.2871810000       0.3747830000       0.1335200000
Na           0.6252170000       0.7128190000       0.3664800000
Na           0.3747830000       0.2871810000       0.6335200000
Na           0.7128190000       0.6252170000       0.8664800000
Cr           0.0000000000       0.0000000000       0.5000000000
Cr           0.0000000000       0.0000000000       0.0000000000
P            0.6478240000       0.6889710000       0.1115860000
P            0.6889710000       0.6478240000       0.6115860000
P            0.3110290000       0.3521760000       0.3884140000
P            0.3521760000       0.3110290000       0.8884140000
O            0.2728500000       0.0684930000       0.9148000000
O            0.9315070000       0.7271500000       0.5852000000
O            0.7271500000       0.9315070000       0.0852000000
O            0.0684930000       0.2728500000       0.4148000000
O            0.7068550000       0.1436830000       0.8863830000
O            0.8563170000       0.2931450000       0.6136170000
O            0.2931450000       0.8563170000       0.1136170000
O            0.1436830000       0.7068550000       0.3863830000
O            0.2177670000       0.5615530000       0.9644010000
O            0.4384470000       0.7822330000       0.5355990000
O            0.7822330000       0.4384470000       0.0355990000
O            0.5615530000       0.2177670000       0.4644010000
O            0.4459720000       0.2250330000       0.2903530000
O            0.7749670000       0.5540280000       0.2096470000
O            0.5540280000       0.7749670000       0.7096470000
O            0.2250330000       0.4459720000       0.7903530000
K_POINTS automatic
10 10 3 0 0 0
CELL_PARAMETERS angstrom
      5.2432534200       0.0000000000       0.0000000000
      2.7888200173       4.4400671103       0.0000000000
      0.3165537531       0.1749885244      14.0139226969
HUBBARD (ortho-atomic)
U Cr-3d 3.0
