&CONTROL
  calculation = 'vc-relax'
  etot_conv_thr =   7.2000000000d-04
  forc_conv_thr =   1.0000000000d-04
  outdir = './out/'
  prefix = 'aiida'
  pseudo_dir = '/leonardo_scratch/large/userexternal/nalghamd/mc_mace/GNoME-screening/2_space_group_DFT/pseudo_SSSP1.3_aiida'
  tprnfor = .true.
  tstress = .true.
  verbosity = 'high'
  nstep = 70
  max_seconds = 75600
/
&SYSTEM
  degauss =   2.0000000000d-02
  ecutrho =   4.0000000000d+02
  ecutwfc =   5.0000000000d+01
  ibrav = 0
  nat = 70
  nosym = .false.
  nspin = 2
  ntyp = 4
  occupations = 'smearing'
  smearing = 'cold'
  starting_magnetization(1) =   1.0000000000d-01
  starting_magnetization(2) =   1.0000000000d-01
  starting_magnetization(3) =   2.7777777778d-01
  starting_magnetization(4) =   1.0000000000d-01
  starting_magnetization(5) =   1.0000000000d-01
/
&ELECTRONS
  conv_thr =   1.4400000000d-08
  electron_maxstep = 250
  mixing_beta = 4.0000000000d-01
/
&IONS
/
&CELL
/
&FCP
/
&RISM
/
ATOMIC_SPECIES
Li     6.941 li_pbesol_v1.4.uspp.F.UPF
Ni     58.6934 ni_pbesol_v1.4.uspp.F.UPF
O      15.9994 O.pbesol-n-kjpaw_psl.0.1.UPF
P      30.973761 P.pbesol-n-rrkjus_psl.1.0.0.UPF

CELL_PARAMETERS (angstrom)
   7.964965163   0.000000000   0.007616641
   0.000000000   9.147606701   0.000000000
  -0.008878676   0.000000000  10.418984405

ATOMIC_POSITIONS (crystal)
Li               0.0265104089        0.9083069297        0.7201097055
Li               0.4734895911        0.4083069297        0.7798902945
Li               0.9734895911        0.0916930703        0.2798902945
Li               0.5265104089        0.5916930703        0.2201097055
Ni               0.8542569670        0.5379538134        0.0909609088
Ni               0.6457430330        0.0379538134        0.4090390912
Ni               0.1422066178        0.4561700193        0.5890140097
Ni               0.3577933822        0.9561700193        0.9109859903
Ni               0.1457430330        0.4620461866        0.9090390912
Ni               0.3542569670        0.9620461866        0.5909609088
Ni               0.8577933822        0.5438299807        0.4109859903
Ni               0.6422066178        0.0438299807        0.0890140097
Ni               0.0000000000        0.0000000000        0.0000000000
Ni               0.5000000000        0.5000000000        0.5000000000
P                0.2089035418        0.7197652010        0.1081014890
P                0.2910964582        0.2197652010        0.3918985110
P                0.7758774222        0.2903658086        0.6080776352
P                0.7241225778        0.7903658086        0.8919223648
P                0.7910964582        0.2802347990        0.8918985110
P                0.7089035418        0.7802347990        0.6081014890
P                0.2241225778        0.7096341914        0.3919223648
P                0.2758774222        0.2096341914        0.1080776352
P                0.2685572240        0.6501745803        0.7536826934
P                0.2314427760        0.1501745803        0.7463173066
P                0.7314427760        0.3498254197        0.2463173066
P                0.7685572240        0.8498254197        0.2536826934
O                0.1891172580        0.8624155801        0.0283386214
O                0.3108827420        0.3624155801        0.4716613786
O                0.7655350536        0.1510373909        0.5302601130
O                0.7344649464        0.6510373909        0.9697398870
O                0.8108827420        0.1375844199        0.9716613786
O                0.6891172580        0.6375844199        0.5283386214
O                0.2344649464        0.8489626091        0.4697398870
O                0.2655350536        0.3489626091        0.0302601130
O                0.5836126812        0.9149640916        0.2601814639
O                0.9163873188        0.4149640916        0.2398185361
O                0.4163873188        0.0850359084        0.7398185361
O                0.0836126812        0.5850359084        0.7601814639
O                0.8424338007        0.9125197193        0.1280445425
O                0.6575661993        0.4125197193        0.3719554575
O                0.1523611349        0.0693603938        0.6302919936
O                0.3476388651        0.5693603938        0.8697080064
O                0.1575661993        0.0874802807        0.8719554575
O                0.3424338007        0.5874802807        0.6280445425
O                0.8476388651        0.9306396062        0.3697080064
O                0.6523611349        0.4306396062        0.1302919936
O                0.3846517352        0.6681945491        0.1072839726
O                0.1153482648        0.1681945491        0.3927160274
O                0.6103289879        0.3713181121        0.6304826071
O                0.8896710121        0.8713181121        0.8695173929
O                0.6153482648        0.3318054509        0.8927160274
O                0.8846517352        0.8318054509        0.6072839726
O                0.3896710121        0.6286818879        0.3695173929
O                0.1103289879        0.1286818879        0.1304826071
O                0.2774865864        0.8183039118        0.7569717190
O                0.2225134136        0.3183039118        0.7430282810
O                0.7225134136        0.1816960882        0.2430282810
O                0.7774865864        0.6816960882        0.2569717190
O                0.0766914391        0.6064670631        0.0564936462
O                0.4233085609        0.1064670631        0.4435063538
O                0.9135471615        0.3952446938        0.5528869809
O                0.5864528385        0.8952446938        0.9471130191
O                0.9233085609        0.3935329369        0.9435063538
O                0.5766914391        0.8935329369        0.5564936462
O                0.0864528385        0.6047553062        0.4471130191
O                0.4135471615        0.1047553062        0.0528869809
O                0.1470725983        0.7585040587        0.2531315804
O                0.3529274017        0.2585040587        0.2468684196
O                0.8529274017        0.2414959413        0.7468684196
O                0.6470725983        0.7414959413        0.7531315804
K_POINTS automatic
6 5 4 0 0 0
HUBBARD (ortho-atomic)
U Ni-3d 5.8
