&CONTROL
  calculation = 'vc-relax'
  etot_conv_thr =   6.0000000000d-04
  forc_conv_thr =   1.0000000000d-04
  outdir = './out/'
  prefix = 'aiida'
  pseudo_dir = '/leonardo_scratch/large/userexternal/nalghamd/mc_mace/GNoME-screening/2_space_group_DFT/pseudo_SSSP1.3_aiida'
  tprnfor = .true.
  tstress = .true.
  verbosity = 'high'
  nstep = 180
  max_seconds = 75600
  restart_mode = 'restart'
/
&SYSTEM
  degauss =   2.0000000000d-02
  ecutrho =   1.0800000000d+03
  ecutwfc =   9.0000000000d+01
  ibrav = 0
  nat = 52
  nosym = .false.
  nspin = 2
  ntyp = 5
  occupations = 'smearing'
  smearing = 'cold'
  starting_magnetization(1) =   1.0000000000d-01
  starting_magnetization(2) =   1.0000000000d-01
  starting_magnetization(3) =   3.1250000000d-01
  starting_magnetization(4) =   1.0000000000d-01
  starting_magnetization(5) =   1.0000000000d-01
  starting_magnetization(6) =   1.0000000000d-01
/
&ELECTRONS
  conv_thr =   1.2000000000d-08
  electron_maxstep = 250
  mixing_beta = 0.7  !4.0000000000d-01
/
&IONS
/
&CELL
/
&FCP
/
&RISM
/
ATOMIC_SPECIES
Ca     40.078 ca_pbesol_v1.uspp.F.UPF
F      18.9984032 f_pbesol_v1.4.uspp.F.UPF
Fe     55.845 Fe.pbesol-spn-kjpaw_psl.0.2.1.UPF
O      15.9994 O.pbesol-n-kjpaw_psl.0.1.UPF
P      30.973761 P.pbesol-n-rrkjus_psl.1.0.0.UPF

CELL_PARAMETERS (angstrom)
   6.746453215   0.024068564   0.007678879
   0.036455579  10.246810321  -0.002035577
   0.012467943  -0.002203008  10.929707801

ATOMIC_POSITIONS (crystal)
Ca               0.0000000000        0.0000000000        0.0000000000
Fe               0.0017299233        0.2511134959        0.8277810146
Fe               0.4977909304        0.7494823799        0.6711086621
Fe               0.9982700767        0.7488865041        0.1722189854
Fe               0.5022090696        0.2505176201        0.3288913379
Fe               0.5000000000        0.5000000000        0.5000000000
Fe               0.5000000000        0.0000000000        0.5000000000
Fe               0.0000000000        0.5000000000        0.0000000000
P                0.2165366807        0.2476281728        0.5779794212
P                0.2823819298        0.7381215107        0.9233353298
P                0.7109093844        0.7454884280        0.9188386954
P                0.7842875411        0.2527844324        0.5783695311
P                0.7834633193        0.7523718272        0.4220205788
P                0.7176180702        0.2618784893        0.0766646702
P                0.2890906156        0.2545115720        0.0811613046
P                0.2157124589        0.7472155676        0.4216304689
O                0.0005036008        0.2503106590        0.5177410696
O                0.4982000431        0.7340168571        0.9813250044
O                0.9994963992        0.7496893410        0.4822589304
O                0.5017999569        0.2659831429        0.0186749956
O                0.1598734496        0.3334536095        0.9888998638
O                0.3358826153        0.8310994828        0.5149125874
O                0.6629022336        0.6688327023        0.5155775940
O                0.8301089419        0.1841267589        0.9798319733
O                0.8401265504        0.6665463905        0.0111001362
O                0.6641173847        0.1689005172        0.4850874126
O                0.3370977664        0.3311672977        0.4844224060
O                0.1698910581        0.8158732411        0.0201680267
O                0.2908197407        0.1060178714        0.5785299771
O                0.2079269298        0.5982506203        0.9149828269
O                0.7633994969        0.8858060016        0.9101454919
O                0.7094250433        0.3944290932        0.5790947499
O                0.7091802593        0.8939821286        0.4214700229
O                0.7920730702        0.4017493797        0.0850171731
O                0.2366005031        0.1141939984        0.0898545081
O                0.2905749567        0.6055709068        0.4209052501
O                0.1981139971        0.3095528465        0.7034554648
O                0.3033541415        0.8036050371        0.7974845236
O                0.6932075960        0.6829338345        0.7911812239
O                0.8032774530        0.1933289916        0.7044716129
O                0.8018860029        0.6904471535        0.2965445352
O                0.6966458585        0.1963949629        0.2025154764
O                0.3067924040        0.3170661655        0.2088187761
O                0.1967225470        0.8066710084        0.2955283871
F                0.1184122663        0.0900124827        0.8373766045
F                0.3894418360        0.5784404898        0.6493322287
F                0.6068166810        0.9202965346        0.6502256675
F                0.8907065156        0.4231812028        0.8495024091
F                0.8815877337        0.9099875173        0.1626233955
F                0.6105581640        0.4215595102        0.3506677713
F                0.3931833190        0.0797034654        0.3497743325
F                0.1092934844        0.5768187972        0.1504975909
K_POINTS automatic
7 4 4 0 0 0
HUBBARD (ortho-atomic)
U Fe-3d 4.5
