&CONTROL
  calculation = 'vc-relax'
  etot_conv_thr =   5.2000000000d-04
  forc_conv_thr =   1.0000000000d-04
  outdir = './out/'
  prefix = 'aiida'
  pseudo_dir = '/leonardo_scratch/large/userexternal/nalghamd/mc_mace/GNoME-screening/2_space_group_DFT/pseudo_SSSP1.3_aiida'
  tprnfor = .true.
  tstress = .true.
  verbosity = 'high'
  nstep = 180
  max_seconds = 75600
/
&SYSTEM
  degauss =   2.0000000000d-02
  ecutrho =   4.0000000000d+02
  ecutwfc =   5.0000000000d+01
  ibrav = 0
  nat = 46
  nosym = .false.
  nspin = 2
  ntyp = 3
  occupations = 'smearing'
  smearing = 'cold'
  starting_magnetization(1) =   3.5714285714d-01
  starting_magnetization(2) =   1.0000000000d-01
  starting_magnetization(3) =   1.0000000000d-01
  starting_magnetization(4) =   1.0000000000d-01
/
&ELECTRONS
  conv_thr =   1.0400000000d-08
  electron_maxstep = 250
  mixing_beta = 0.7 !0.3 !0.2 !0.7  !4.0000000000d-01
  diagonalization = 'cg'
/
&IONS
/
&CELL
/
&FCP
/
&RISM
/
ATOMIC_SPECIES
Cr     51.9961 cr_pbesol_v1.5.uspp.F.UPF
O      15.9994 O.pbesol-n-kjpaw_psl.0.1.UPF
P      30.973761 P.pbesol-n-rrkjus_psl.1.0.0.UPF
ATOMIC_POSITIONS crystal
Cr           1.0000000000       0.5000000000       0.0000000000
Cr           0.6823620000       0.3132310000       0.2491970000
Cr           0.3691320000       0.6867700000       0.2508030000
Cr           0.5000000000       0.5000000000       0.5000000000
Cr           0.6308680000       0.3132300000       0.7491980000
Cr           0.3176380000       0.6867700000       0.7508020000
P            0.2512660000       0.8313130000       0.0089880000
P            0.2231050000       0.4002340000       0.2416380000
P            0.8228720000       0.5997660000       0.2583620000
P            0.4199520000       0.1686860000       0.4910130000
P            0.5800480000       0.8313130000       0.5089880000
P            0.1771290000       0.4002340000       0.7416380000
P            0.7768950000       0.5997660000       0.7583620000
P            0.7487340000       0.1686870000       0.9910120000
O            0.0424000000       0.6994840000       0.0062920000
O            0.1778470000       0.9550430000       0.0466050000
O            0.4214030000       0.8145780000       0.1104440000
O            0.6328080000       0.1585010000       0.1223240000
O            0.2376760000       0.5095470000       0.1338210000
O            0.7999580000       0.4869530000       0.1459620000
O            0.3693410000       0.3100610000       0.2098800000
O            0.6823580000       0.6908870000       0.2252940000
O            0.9914730000       0.3091130000       0.2747060000
O            0.0592790000       0.6899380000       0.2901190000
O            0.3130050000       0.5130470000       0.3540390000
O            0.7281290000       0.4904520000       0.3661790000
O            0.4743060000       0.8414990000       0.3776760000
O            0.6068260000       0.1854220000       0.3895570000
O            0.2228040000       0.0449570000       0.4533960000
O            0.3429150000       0.3005150000       0.4937080000
O            0.6570850000       0.6994840000       0.5062920000
O            0.7771960000       0.9550430000       0.5466050000
O            0.3931740000       0.8145780000       0.6104440000
O            0.5256930000       0.1585010000       0.6223240000
O            0.2718710000       0.5095480000       0.6338210000
O            0.6869950000       0.4869530000       0.6459620000
O            0.9407210000       0.3100620000       0.7098810000
O            0.0085290000       0.6908870000       0.7252940000
O            0.3176410000       0.3091130000       0.7747060000
O            0.6306580000       0.6899380000       0.7901190000
O            0.2000420000       0.5130470000       0.8540380000
O            0.7623240000       0.4904520000       0.8661790000
O            0.3671920000       0.8414990000       0.8776760000
O            0.5785970000       0.1854220000       0.8895560000
O            0.8221530000       0.0449570000       0.9533950000
O            0.9576000000       0.3005160000       0.9937090000
K_POINTS automatic
7 5 4 0 0 0
CELL_PARAMETERS angstrom
      6.3676220000       0.0000000000       0.0000000000
     -3.1838109995       9.6226471480       0.0000000000
      0.0000000000      -0.3433791064      10.5187517774
HUBBARD (ortho-atomic)
U Cr-3d 3
