&CONTROL
  calculation = 'vc-relax'
  etot_conv_thr =   3.8000000000d-04
  forc_conv_thr =   1.0000000000d-04
  outdir = './out/'
  prefix = 'aiida'
  pseudo_dir = '/leonardo_scratch/large/userexternal/nalghamd/mc_mace/GNoME-screening/2_space_group_DFT/pseudo_SSSP1.3_aiida'
  tprnfor = .true.
  tstress = .true.
  verbosity = 'high'
  nstep = 70
  max_seconds = 75600
  restart_mode = 'restart'
/
&SYSTEM
  degauss =   2.0000000000d-02
  ecutrho =   7.8000000000d+02
  ecutwfc =   6.5000000000d+01
  ibrav = 0
  nat = 38
  nosym = .false.
  nspin = 2
  ntyp = 4
  occupations = 'smearing'
  smearing = 'cold'
  starting_magnetization(1) =   3.3333333333d-01
  starting_magnetization(2) =   1.0000000000d-01
  starting_magnetization(3) =   1.0000000000d-01
  starting_magnetization(4) =   1.0000000000d-01
/
&ELECTRONS
  conv_thr =   7.6000000000d-09
  electron_maxstep = 80
  mixing_beta =   4.0000000000d-01
/
&IONS
/
&CELL
/
&FCP
/
&RISM
/
ATOMIC_SPECIES
Mn     54.938045 mn_pbesol_v1.5.uspp.F.UPF
Na     22.98977 na_pbesol_v1.5.uspp.F.UPF
O      15.9994 O.pbesol-n-kjpaw_psl.0.1.UPF
P      30.973761 P.pbesol-n-rrkjus_psl.1.0.0.UPF
ATOMIC_POSITIONS crystal
Na           0.1866990000       0.4680300000       0.7037180000
Na           0.8133010000       0.5319700000       0.2962820000
Na           0.4680300000       0.1866990000       0.2037180000
Na           0.5319700000       0.8133010000       0.7962820000
Mn           0.1355300000       0.8644700000       0.2500000000
Mn           0.8644700000       0.1355300000       0.7500000000
P            0.2058670000       0.0608830000       0.8312890000
P            0.9391170000       0.7941330000       0.6687110000
P            0.0608830000       0.2058670000       0.3312890000
P            0.2331550000       0.5533320000       0.1298130000
P            0.5533320000       0.2331550000       0.6298130000
P            0.4466680000       0.7668450000       0.3701870000
P            0.7941330000       0.9391170000       0.1687110000
P            0.7668450000       0.4466680000       0.8701870000
O            0.9030820000       0.8410600000       0.1567790000
O            0.1128670000       0.8871330000       0.7500000000
O            0.2775750000       0.0216860000       0.9913380000
O            0.3858540000       0.6141460000       0.2500000000
O            0.8996890000       0.3853880000       0.8088870000
O            0.9783140000       0.7224250000       0.5086610000
O            0.8410600000       0.9030820000       0.6567790000
O            0.1589400000       0.0969180000       0.3432210000
O            0.3531120000       0.1639340000       0.6752060000
O            0.6146120000       0.1003110000       0.6911130000
O            0.5924570000       0.3067890000       0.4430950000
O            0.1003110000       0.6146120000       0.1911130000
O            0.6932110000       0.4075430000       0.0569050000
O            0.3067890000       0.5924570000       0.9430950000
O            0.8871330000       0.1128670000       0.2500000000
O            0.1639340000       0.3531120000       0.1752060000
O            0.6468880000       0.8360660000       0.3247940000
O            0.7224250000       0.9783140000       0.0086610000
O            0.3853880000       0.8996890000       0.3088870000
O            0.8360660000       0.6468880000       0.8247940000
O            0.4075430000       0.6932110000       0.5569050000
O            0.0969180000       0.1589400000       0.8432210000
O            0.6141460000       0.3858540000       0.7500000000
O            0.0216860000       0.2775750000       0.4913390000
K_POINTS automatic
6 6 6 0 0 0
CELL_PARAMETERS angstrom
      8.7111606500       0.0000000000       0.0000000000
     -3.3871376787       8.0256848521       0.0000000000
      0.6121812678       0.9228313338       7.6652386233
HUBBARD (ortho-atomic)
U Mn-3d 4.7
