&CONTROL
  calculation = 'scf'
  etot_conv_thr =   2.8000000000d-03
  forc_conv_thr =   1.0000000000d-03
  outdir = './out/'
  prefix = 'aiida'
  pseudo_dir = '/leonardo_scratch/large/userexternal/nalghamd/mc_mace/GNoME-screening/2_space_group_DFT/pseudo_SSSP1.3_aiida'
  tprnfor = .true.
  tstress = .true.
  verbosity = 'high'
  nstep = 180
  max_seconds = 75600
/
&SYSTEM
  degauss =   2.0000000000d-02
  ecutrho =   4.0000000000d+02
  ecutwfc =   5.0000000000d+01
  ibrav = 0
  nat = 28
  nosym = .false.
  nspin = 2
  ntyp = 4
  occupations = 'smearing'
  smearing = 'cold'
  starting_magnetization(1) =   3.5714285714d-01
  starting_magnetization(2) =   1.0000000000d-01
  starting_magnetization(3) =   1.0000000000d-01
  starting_magnetization(4) =   1.0000000000d-01
/
&ELECTRONS
  conv_thr =   5.6000000000d-06
  electron_maxstep = 250
  mixing_beta =   4.0000000000d-01
/
&IONS
/
&CELL
/
&FCP
/
&RISM
/
ATOMIC_SPECIES
Cr     51.9961 cr_pbesol_v1.5.uspp.F.UPF
Na     22.98977 na_pbesol_v1.5.uspp.F.UPF
O      15.9994 O.pbesol-n-kjpaw_psl.0.1.UPF
P      30.973761 P.pbesol-n-rrkjus_psl.1.0.0.UPF

CELL_PARAMETERS (angstrom)
   5.313918942   0.000000000   0.000000000
   0.000000000   6.935302632   0.000000000
   0.000000000   0.000000000   8.745217557

ATOMIC_POSITIONS (crystal)
Na               0.4459724603        0.7500000000        0.1551415048
Na               0.5540275397        0.2500000000        0.8448584952
Na               0.9459724603        0.2500000000        0.3448584952
Na               0.0540275397        0.7500000000        0.6551415048
Cr               0.5000000000        0.0000000000        0.5000000000
Cr               0.0000000000        0.0000000000        0.0000000000
Cr               0.5000000000        0.5000000000        0.5000000000
Cr               0.0000000000        0.5000000000        0.0000000000
P                0.0659082854        0.2500000000        0.6867232078
P                0.4340917146        0.2500000000        0.1867232078
P                0.9340917146        0.7500000000        0.3132767922
P                0.5659082854        0.7500000000        0.8132767922
O                0.9435335289        0.7500000000        0.1309887803
O                0.4435335289        0.2500000000        0.3690112197
O                0.0564664711        0.2500000000        0.8690112197
O                0.5564664711        0.7500000000        0.6309887803
O                0.3015507503        0.7500000000        0.8833638002
O                0.8015507503        0.2500000000        0.6166361998
O                0.6984492497        0.2500000000        0.1166361998
O                0.1984492497        0.7500000000        0.3833638002
O                0.2162965981        0.4326541715        0.6420576475
O                0.7162965981        0.5673458285        0.8579423525
O                0.7837034019        0.9326541715        0.3579423525
O                0.2837034019        0.0673458285        0.1420576475
O                0.7837034019        0.5673458285        0.3579423525
O                0.2837034019        0.4326541715        0.1420576475
O                0.2162965981        0.0673458285        0.6420576475
O                0.7162965981        0.9326541715        0.8579423525
K_POINTS automatic
8 7 5 0 0 0
!HUBBARD (atomic)
!U Cr-3d 3
