&CONTROL
  calculation = 'vc-relax'
  etot_conv_thr =   2.2000000000d-04
  forc_conv_thr =   1.0000000000d-04
  outdir = './out/'
  prefix = 'aiida'
  pseudo_dir = './pseudo/'
  tprnfor = .true.
  tstress = .true.
  verbosity = 'high'
  max_seconds = 82800
  restart_mode = 'restart'
  nstep = 100
/
&SYSTEM
  degauss =   2.0000000000d-02
  ecutrho =   1.0800000000d+03
  ecutwfc =   9.0000000000d+01
  ibrav = 0
  nat = 20
  nosym = .false.
  nspin = 2
  ntyp = 2
  occupations = 'smearing'
  smearing = 'cold'
  starting_magnetization(1) =   1.0000000000d-01
  starting_magnetization(2) =   3.1250000000d-01
  starting_magnetization(3) =   1.0000000000d-01
/
&ELECTRONS
  conv_thr =   4.4000000000d-09
  electron_maxstep = 80
  mixing_beta = 0.7  !4.0000000000d-01
/
&IONS
/
&CELL
/
&FCP
/
&RISM
/
ATOMIC_SPECIES
Cl     35.453 cl_pbesol_v1.4.uspp.F.UPF
Fe     55.845 Fe.pbesol-spn-kjpaw_psl.0.2.1.UPF
ATOMIC_POSITIONS crystal
Fe           0.1561500000       0.6826540000       0.5289340000
Fe           0.3173460000       0.8438500000       0.9710660000
Fe           0.8438500000       0.3173460000       0.4710660000
Fe           0.6826540000       0.1561500000       0.0289340000
Cl           0.3006990000       0.3954710000       0.5512570000
Cl           0.6045290000       0.6993010000       0.9487430000
Cl           0.6993010000       0.6045290000       0.4487430000
Cl           0.3954710000       0.3006990000       0.0512570000
Cl           0.8774760000       0.8398450000       0.5031840000
Cl           0.1601550000       0.1225240000       0.9968160000
Cl           0.1225240000       0.1601550000       0.4968160000
Cl           0.8398450000       0.8774760000       0.0031840000
Cl           0.1392280000       0.7054380000       0.7123670000
Cl           0.2945620000       0.8607720000       0.7876330000
Cl           0.8607720000       0.2945620000       0.2876330000
Cl           0.7054380000       0.1392280000       0.2123670000
Cl           0.2847990000       0.8349160000       0.3237420000
Cl           0.1650840000       0.7152010000       0.1762580000
Cl           0.7152010000       0.1650840000       0.6762580000
Cl           0.8349160000       0.2847990000       0.8237420000
K_POINTS automatic
6 6 5 0 0 0
CELL_PARAMETERS angstrom
     10.1447409800       0.0000000000       0.0000000000
      6.7430485234       7.5793834835       0.0000000000
      6.6972336764       3.0057755105       9.5248413124
HUBBARD (ortho-atomic)
U Fe-3d 4.5
