&CONTROL
  calculation = 'vc-relax'
  etot_conv_thr =   3.0000000000d-04
  forc_conv_thr =   1.0000000000d-04
  outdir = './out/'
  prefix = 'aiida'
  pseudo_dir = '/leonardo_scratch/large/userexternal/nalghamd/mc_mace/GNoME-screening/2_space_group_DFT/pseudo_SSSP1.3_aiida'
  tprnfor = .true.
  tstress = .true.
  verbosity = 'high'
  nstep = 70
  max_seconds = 75600
/
&SYSTEM
  degauss =   2.0000000000d-02
  ecutrho =   4.8000000000d+02
  ecutwfc =   6.0000000000d+01
  ibrav = 0
  nat = 30
  nosym = .false.
  nspin = 2
  ntyp = 4
  occupations = 'smearing'
  smearing = 'cold'
  starting_magnetization(1) =   1.0000000000d-01
  starting_magnetization(2) =   1.0000000000d-01
  starting_magnetization(3) =   1.0000000000d-01
  starting_magnetization(4) =   3.8461538462d-01
/
&ELECTRONS
  conv_thr =   6.0000000000d-09
  electron_maxstep = 250
  mixing_beta =   4.0000000000d-01
/
&IONS
/
&CELL
/
&FCP
/
&RISM
/
ATOMIC_SPECIES
K      39.0983 K.pbesol-spn-kjpaw_psl.1.0.0.UPF
O      15.9994 O.pbesol-n-kjpaw_psl.0.1.UPF
Si     28.0855 Si.pbesol-n-rrkjus_psl.1.0.0.UPF
V      50.9415 v_pbesol_v1.4.uspp.F.UPF
ATOMIC_POSITIONS crystal
K            0.3345700000       0.6671420000       0.0575860000
K            0.6654300000       0.3328580000       0.5575860000
K            0.3345700000       0.6671420000       0.4424140000
K            0.6654300000       0.3328580000       0.9424140000
V            0.0000000000       0.0000000000       0.0000000000
V            0.0000000000       0.0000000000       0.5000000000
Si           0.6233830000       0.7533820000       0.7500000000
Si           0.8694400000       0.6253000000       0.2500000000
Si           0.7549440000       0.1297960000       0.2500000000
Si           0.2450560000       0.8702040000       0.7500000000
Si           0.1305600000       0.3747000000       0.7500000000
Si           0.3766170000       0.2466180000       0.2500000000
O            0.2459940000       0.2243700000       0.3873440000
O            0.0221260000       0.2414660000       0.8879530000
O            0.2239830000       0.9806860000       0.8876390000
O            0.7760170000       0.0193140000       0.3876390000
O            0.9778740000       0.7585340000       0.3879530000
O            0.7540060000       0.7756300000       0.8873440000
O            0.7540060000       0.7756300000       0.6126560000
O            0.9778740000       0.7585340000       0.1120470000
O            0.7760170000       0.0193140000       0.1123610000
O            0.2239830000       0.9806860000       0.6123610000
O            0.0221260000       0.2414660000       0.6120470000
O            0.2459940000       0.2243700000       0.1126560000
O            0.4902860000       0.0810090000       0.2500000000
O            0.4069640000       0.4867780000       0.7500000000
O            0.0800530000       0.5899710000       0.7500000000
O            0.9199470000       0.4100290000       0.2500000000
O            0.5930360000       0.5132220000       0.2500000000
O            0.5097140000       0.9189910000       0.7500000000
K_POINTS automatic
8 8 5 0 0 0
CELL_PARAMETERS angstrom
      6.8659604700       0.0000000000       0.0000000000
     -3.4069492006       5.9136621686       0.0000000000
      0.0000000000       0.0000000000      10.0615130000
HUBBARD (ortho-atomic)
U V-3d 3.9
