&CONTROL
  calculation = 'vc-relax'
  etot_conv_thr =   3.8000000000d-04
  forc_conv_thr =   1.0000000000d-04
  outdir = './out/'
  prefix = 'aiida'
  pseudo_dir = '/leonardo_scratch/large/userexternal/nalghamd/mc_mace/GNoME-screening/2_space_group_DFT/pseudo_SSSP1.3_aiida'
  tprnfor = .true.
  tstress = .true.
  verbosity = 'high'
  nstep = 50
  max_seconds = 75600
  restart_mode = 'restart'
/
&SYSTEM
  degauss =   2.0000000000d-02
  ecutrho =   7.8000000000d+02
  ecutwfc =   6.5000000000d+01
  ibrav = 0
  nat = 34
  nosym = .false.
  nspin = 2
  ntyp = 3
  occupations = 'smearing'
  smearing = 'cold'
  starting_magnetization(1) =   3.3333333333d-01
  starting_magnetization(2) =   1.0000000000d-01
  starting_magnetization(3) =   1.0000000000d-01
  starting_magnetization(4) =   1.0000000000d-01
/
&ELECTRONS
  conv_thr =   7.6000000000d-09
  electron_maxstep = 250
  mixing_beta = 4.0000000000d-01
/
&IONS
/
&CELL
/
&FCP
/
&RISM
/
ATOMIC_SPECIES
Mn     54.938045 mn_pbesol_v1.5.uspp.F.UPF
O      15.9994 O.pbesol-n-kjpaw_psl.0.1.UPF
P      30.973761 P.pbesol-n-rrkjus_psl.1.0.0.UPF

CELL_PARAMETERS (angstrom)
   8.133064634   0.191212802   0.567941036
  -2.986092470   7.567188227   0.568378679
   1.093214802   1.648345050   7.187809541

ATOMIC_POSITIONS (crystal)
Mn               0.1320491059        0.8679302656        0.2500192086
Mn               0.8679508941        0.1320697344        0.7499807914
P                0.2150223005        0.0523943245        0.8060986373
P                0.9476001528        0.7849682293        0.6939198246
P                0.0523998472        0.2150317707        0.3060801754
P                0.2794529867        0.6123158384        0.0968349956
P                0.6122892868        0.2794861903        0.5968721171
P                0.3877107132        0.7205138097        0.4031278829
P                0.7849776995        0.9476056755        0.1939013627
P                0.7205470133        0.3876841616        0.9031650044
O                0.9158583233        0.8522825357        0.1841520815
O                0.1301309538        0.8698575733        0.7500129295
O                0.2710735540        0.0111133564        0.9863981740
O                0.3921068832        0.6079505783        0.2499421012
O                0.8841098637        0.3415485047        0.8107143063
O                0.9888734216        0.7289035650        0.5136400341
O                0.8522868838        0.9158614558        0.6841416371
O                0.1477131162        0.0841385442        0.3158583629
O                0.3939603787        0.1749307815        0.6280084970
O                0.6584825336        0.1159221679        0.6892338027
O                0.7132127397        0.3982030529        0.3970877666
O                0.1158901363        0.6584514953        0.1892856937
O                0.6019179191        0.2867276349        0.1029723335
O                0.3980820809        0.7132723651        0.8970276665
O                0.8698690462        0.1301424267        0.2499870705
O                0.1749395673        0.3939728615        0.1279757599
O                0.6060396213        0.8250692185        0.3719915030
O                0.7289264460        0.9888866436        0.0136008260
O                0.3415174664        0.8840778321        0.3107661973
O                0.8250604327        0.6060271385        0.8720242401
O                0.2867872603        0.6017969471        0.6029122334
O                0.0841416767        0.1477174643        0.8158479185
O                0.6078931168        0.3920494217        0.7500578988
O                0.0111265784        0.2710964350        0.4863599659
K_POINTS automatic
6 6 6 0 0 0
HUBBARD (ortho-atomic)
U Mn-3d 4.7
