&CONTROL
  calculation = 'vc-relax'
  etot_conv_thr =   3.6000000000d-04
  forc_conv_thr =   1.0000000000d-04
  outdir = './out/'
  prefix = 'aiida'
  pseudo_dir = '/leonardo_scratch/large/userexternal/nalghamd/mc_mace/GNoME-screening/2_space_group_DFT/pseudo_SSSP1.3_aiida'
  tprnfor = .true.
  tstress = .true.
  verbosity = 'high'
  nstep = 180
  max_seconds = 75600
/
&SYSTEM
  degauss =   2.0000000000d-02
  ecutrho =   4.0000000000d+02
  ecutwfc =   5.0000000000d+01
  ibrav = 0
  nat = 36
  nosym = .false.
  nspin = 2
  ntyp = 4
  occupations = 'smearing'
  smearing = 'cold'
  starting_magnetization(1) =   1.0000000000d-01
  starting_magnetization(2) =   2.7777777778d-01
  starting_magnetization(3) =   1.0000000000d-01
  starting_magnetization(4) =   1.0000000000d-01
/
&ELECTRONS
  conv_thr =   7.2000000000d-09
  electron_maxstep = 250
  mixing_beta =   4.0000000000d-01
/
&IONS
/
&CELL
/
&FCP
/
&RISM
/
ATOMIC_SPECIES
Ca     40.078 ca_pbesol_v1.uspp.F.UPF
Ni     58.6934 ni_pbesol_v1.4.uspp.F.UPF
O      15.9994 O.pbesol-n-kjpaw_psl.0.1.UPF
P      30.973761 P.pbesol-n-rrkjus_psl.1.0.0.UPF
ATOMIC_POSITIONS crystal
Ca          -0.0000000000       0.5000000000       0.5000000000
Ca           0.5366800000       0.4512540000       0.7563280000
Ca           0.4633200000       0.5487460000       0.2436720000
Ni           0.5000000000       0.0000000000       0.0000000000
P            0.7992220000       0.8241350000       0.6958650000
P            0.1890170000       0.1877040000       0.8140700000
P            0.2007780000       0.1758650000       0.3041350000
P            0.8109830000       0.8122960000       0.1859300000
P            0.7663320000       0.2126870000       0.4748830000
P            0.7755890000       0.2264540000       0.0251910000
P            0.2336680000       0.7873130000       0.5251170000
P            0.2244110000       0.7735460000       0.9748090000
O            0.0307890000       0.8146410000       0.6564220000
O            0.1995920000       0.9650290000       0.8395460000
O            0.9692110000       0.1853590000       0.3435780000
O            0.8004080000       0.0349710000       0.1604540000
O            0.7396100000       0.9941720000       0.5587340000
O            0.9994310000       0.2470600000       0.9421950000
O            0.2603900000       0.0058280000       0.4412660000
O            0.0005690000       0.7529400000       0.0578050000
O            0.6941820000       0.8726300000       0.8356230000
O            0.1632280000       0.3014410000       0.6684480000
O            0.3058180000       0.1273700000       0.1643770000
O            0.8367720000       0.6985590000       0.3315520000
O            0.7777450000       0.6428040000       0.6834490000
O            0.3628990000       0.2008600000       0.8457770000
O            0.2222550000       0.3571960000       0.3165510000
O            0.6371010000       0.7991400000       0.1542230000
O            0.7925680000       0.2935870000       0.5765880000
O            0.6918190000       0.1890260000       0.9296580000
O            0.2074320000       0.7064130000       0.4234120000
O            0.3081810000       0.8109740000       0.0703420000
O            0.3952050000       0.6816710000       0.5910340000
O            0.3272900000       0.6050070000       0.9185900000
O            0.6047950000       0.3183290000       0.4089660000
O            0.6727100000       0.3949930000       0.0814100000
K_POINTS automatic
7 7 5 0 0 0
CELL_PARAMETERS angstrom
      7.5830784400       0.0000000000       0.0000000000
      2.5629735168       7.2675632465       0.0000000000
      4.0930307482       2.8209819836       9.1503295467
HUBBARD (ortho-atomic)
U Ni-3d 5.8
