&CONTROL
  calculation = 'scf'
  etot_conv_thr =   7.4000000000d-04
  forc_conv_thr =   1.0000000000d-04
  outdir = './out/'
  prefix = 'aiida'
  pseudo_dir = '/leonardo_scratch/large/userexternal/nalghamd/mc_mace/GNoME-screening/2_space_group_DFT/pseudo_SSSP1.3_aiida'
  tprnfor = .true.
  tstress = .true.
  verbosity = 'high'
  nstep = 180
  max_seconds = 75600
  restart_mode = 'restart'
/
&SYSTEM
  degauss =   2.0000000000d-02
  ecutrho =   1.0800000000d+03
  ecutwfc =   9.0000000000d+01
  ibrav = 0
  nat = 74
  nosym = .false.
  nspin = 2
  ntyp = 4
  occupations = 'smearing'
  smearing = 'cold'
  starting_magnetization(1) =   3.1250000000d-01
  starting_magnetization(2) =   1.0000000000d-01
  starting_magnetization(3) =   1.0000000000d-01
  starting_magnetization(4) =   1.0000000000d-01
/
&ELECTRONS
  conv_thr =   1.4800000000d-08
  electron_maxstep = 300
  mixing_beta =   4.0000000000d-01
/
&IONS
/
&CELL
/
&FCP
/
&RISM
/
ATOMIC_SPECIES
Fe     55.845 Fe.pbesol-spn-kjpaw_psl.0.2.1.UPF
Na     22.98977 na_pbesol_v1.5.uspp.F.UPF
O      15.9994 O.pbesol-n-kjpaw_psl.0.1.UPF
P      30.973761 P.pbesol-n-rrkjus_psl.1.0.0.UPF

CELL_PARAMETERS (angstrom)
   6.662493666   0.000000000   0.000000000
   0.000000000  10.918590075  -0.033346654
   0.000000000   3.017152742  12.375596133

ATOMIC_POSITIONS (crystal)
Na               0.9010239933        0.4542461704        0.1670521223
Na               0.5989760067        0.9542461704        0.1670521223
Na               0.4810841741        0.1424591898        0.3554016016
Na               0.0189158259        0.6424591898        0.3554016016
Na               0.9810841741        0.3575408102        0.6445983984
Na               0.5189158259        0.8575408102        0.6445983984
Na               0.4010239933        0.0457538296        0.8329478777
Na               0.0989760067        0.5457538296        0.8329478777
Fe               0.5000000000        0.5000000000       -0.0000000000
Fe               0.2485318698        0.2181756769        0.1318301695
Fe               0.0000000000        0.0000000000        0.0000000000
Fe               0.2514681302        0.7181756769        0.1318301695
Fe               0.0050837112        0.1928695965        0.3357330469
Fe               0.4949162888        0.6928695965        0.3357330469
Fe               0.5050837112        0.3071304035        0.6642669531
Fe               0.9949162888        0.8071304035        0.6642669531
Fe               0.7485318698        0.2818243231        0.8681698305
Fe               0.7514681302        0.7818243231        0.8681698305
P                0.7381343638        0.2242195519        0.0895176162
P                0.7618656362        0.7242195519        0.0895176162
P                0.3818586973        0.4351030768        0.2568202718
P                0.1181413027        0.9351030768        0.2568202718
P                0.6990347038        0.4087013627        0.4162897996
P                0.8009652962        0.9087013627        0.4162897996
P                0.1990347038        0.0912986373        0.5837102004
P                0.3009652962        0.5912986373        0.5837102004
P                0.8818586973        0.0648969232        0.7431797282
P                0.6181413027        0.5648969232        0.7431797282
P                0.2381343638        0.2757804481        0.9104823838
P                0.2618656362        0.7757804481        0.9104823838
O                0.7703879542        0.1342300476        0.0114981588
O                0.7110085032        0.3557280950        0.0087610142
O                0.7296120458        0.6342300476        0.0114981588
O                0.7889914968        0.8557280950        0.0087610142
O                0.5517572379        0.1787966938        0.1605719094
O                0.9225124109        0.2322032579        0.1625922774
O                0.5438855461        0.4543694035        0.1709368263
O                0.2121477272        0.0599032243        0.2700325006
O                0.9482427621        0.6787966938        0.1605719094
O                0.5774865891        0.7322032579        0.1625922774
O                0.2226979085        0.3381032066        0.2423396947
O                0.9561144539        0.9543694035        0.1709368263
O                0.2878522728        0.5599032243        0.2700325006
O                0.7916173945        0.0530199297        0.3903650229
O                0.2773020915        0.8381032066        0.2423396947
O                0.8620662238        0.3554094144        0.3555597427
O                0.4829767618        0.3687368365        0.3720753561
O                0.1961285265        0.1530877590        0.4633170912
O                0.7083826055        0.5530199297        0.3903650229
O                0.6379337762        0.8554094144        0.3555597427
O                0.0170232382        0.8687368365        0.3720753561
O                0.3038714735        0.6530877590        0.4633170912
O                0.6961285265        0.3469122410        0.5366829088
O                0.9829767618        0.1312631635        0.6279246439
O                0.3620662238        0.1445905856        0.6444402573
O                0.2916173945        0.4469800703        0.6096349771
O                0.8038714735        0.8469122410        0.5366829088
O                0.5170232382        0.6312631635        0.6279246439
O                0.1379337762        0.6445905856        0.6444402573
O                0.7226979085        0.1618967934        0.7576603053
O                0.2083826055        0.9469800703        0.6096349771
O                0.7121477272        0.4400967757        0.7299674994
O                0.0438855461        0.0456305965        0.8290631737
O                0.7773020915        0.6618967934        0.7576603053
O                0.4225124109        0.2677967421        0.8374077226
O                0.0517572379        0.3212033062        0.8394280906
O                0.7878522728        0.9400967757        0.7299674994
O                0.4561144539        0.5456305965        0.8290631737
O                0.0774875891        0.7677967421        0.8374077226
O                0.4482427621        0.8212033062        0.8394280906
O                0.2110085032        0.1442719050        0.9912389858
O                0.2703879542        0.3657699524        0.9885018412
O                0.2889914968        0.6442719050        0.9912389858
O                0.2296120458        0.8657699524        0.9885018412
K_POINTS automatic
7 4 4 0 0 0
HUBBARD (ortho-atomic)
U Fe-3d 4.5
