&CONTROL
  calculation = 'vc-relax'
  etot_conv_thr =   5.6000000000d-04
  forc_conv_thr =   1.0000000000d-04
  outdir = './out/'
  prefix = 'aiida'
  pseudo_dir = '/leonardo_scratch/large/userexternal/nalghamd/mc_mace/GNoME-screening/2_space_group_DFT/pseudo_SSSP1.3_aiida'
  tprnfor = .true.
  tstress = .true.
  verbosity = 'high'
  nstep = 180
  max_seconds = 75600
/
&SYSTEM
  degauss =   2.0000000000d-02
  ecutrho =   4.0000000000d+02
  ecutwfc =   5.0000000000d+01
  ibrav = 0
  nat = 56
  nosym = .false.
  nspin = 2
  ntyp = 5
  occupations = 'smearing'
  smearing = 'cold'
  starting_magnetization(1) =   1.0000000000d-01
  starting_magnetization(2) =   1.0000000000d-01
  starting_magnetization(3) =   1.0000000000d-01
  starting_magnetization(4) =   1.0000000000d-01
  starting_magnetization(5) =   3.8461538462d-01
/
&ELECTRONS
  conv_thr =   1.1200000000d-08
  electron_maxstep = 250
  mixing_beta =   4.0000000000d-01
/
&IONS
/
&CELL
/
&FCP
/
&RISM
/
ATOMIC_SPECIES
Mg     24.305 Mg.pbesol-n-kjpaw_psl.0.3.0.UPF
O      15.9994 O.pbesol-n-kjpaw_psl.0.1.UPF
P      30.973761 P.pbesol-n-rrkjus_psl.1.0.0.UPF
Sr     87.62 sr_pbesol_v1.uspp.F.UPF
V      50.9415 v_pbesol_v1.4.uspp.F.UPF
ATOMIC_POSITIONS crystal
Sr           0.7500000000       0.8742140000       0.7797590000
Sr           0.7500000000       0.6257860000       0.2797590000
Sr           0.2500000000       0.1257860000       0.2202410000
Sr           0.2500000000       0.3742140000       0.7202410000
Mg           0.5000000000       0.0000000000       0.0000000000
Mg           0.5000000000       0.5000000000       0.5000000000
Mg           0.0000000000       0.5000000000       0.5000000000
Mg           0.0000000000       0.0000000000       0.0000000000
V            0.7500000000       0.3449630000       0.8837270000
V            0.2500000000       0.6550370000       0.1162730000
V            0.2500000000       0.8449630000       0.6162730000
V            0.7500000000       0.1550370000       0.3837270000
P            0.2500000000       0.3472580000       0.9430410000
P            0.7500000000       0.6527420000       0.0569590000
P            0.7500000000       0.8472580000       0.5569590000
P            0.2500000000       0.1527420000       0.4430410000
P            0.7500000000       0.3877020000       0.6914640000
P            0.2500000000       0.6122980000       0.3085360000
P            0.2500000000       0.8877020000       0.8085360000
P            0.7500000000       0.1122980000       0.1914640000
O            0.0598850000       0.6004940000       0.3697840000
O            0.5598850000       0.3995060000       0.6302160000
O            0.9401150000       0.1004940000       0.1302160000
O            0.4401150000       0.8995060000       0.8697840000
O            0.9401150000       0.3995060000       0.6302160000
O            0.4401150000       0.6004940000       0.3697840000
O            0.0598850000       0.8995060000       0.8697840000
O            0.5598850000       0.1004940000       0.1302160000
O            0.2500000000       0.3332930000       0.4901600000
O            0.7500000000       0.6667070000       0.5098400000
O            0.7500000000       0.8332930000       0.0098400000
O            0.2500000000       0.1667070000       0.9901600000
O            0.7500000000       0.1461750000       0.9379310000
O            0.2500000000       0.8538250000       0.0620690000
O            0.2500000000       0.6461750000       0.5620690000
O            0.7500000000       0.3538250000       0.4379310000
O            0.7500000000       0.2190330000       0.7532750000
O            0.2500000000       0.7809670000       0.2467250000
O            0.2500000000       0.7190330000       0.7467250000
O            0.7500000000       0.2809670000       0.2532750000
O            0.4371490000       0.1359950000       0.3770840000
O            0.9371490000       0.8640050000       0.6229160000
O            0.5628510000       0.6359950000       0.1229160000
O            0.0628510000       0.3640050000       0.8770840000
O            0.5628510000       0.8640050000       0.6229160000
O            0.0628510000       0.1359950000       0.3770840000
O            0.4371490000       0.3640050000       0.8770840000
O            0.9371490000       0.6359950000       0.1229160000
O            0.7500000000       0.9712060000       0.2713200000
O            0.2500000000       0.0287940000       0.7286800000
O            0.2500000000       0.4712060000       0.2286800000
O            0.7500000000       0.5287940000       0.7713200000
O            0.7500000000       0.9877530000       0.4817540000
O            0.2500000000       0.0122470000       0.5182460000
O            0.2500000000       0.4877530000       0.0182460000
O            0.7500000000       0.5122470000       0.9817540000
K_POINTS automatic
7 6 3 0 0 0
CELL_PARAMETERS angstrom
      6.5966730000       0.0000000000       0.0000000000
      0.0000000000       7.6861810000       0.0000000000
      0.0000000000       0.0000000000      14.3738960000
HUBBARD (ortho-atomic)
U V-3d 3.9
