&CONTROL
  calculation = 'vc-relax'
  etot_conv_thr =   2.0000000000d-04
  forc_conv_thr =   1.0000000000d-04
  outdir = './out/'
  prefix = 'aiida'
  pseudo_dir = '/leonardo_scratch/large/userexternal/nalghamd/mc_mace/GNoME-screening/2_space_group_DFT/pseudo_SSSP1.3_aiida'
  tprnfor = .true.
  tstress = .true.
  verbosity = 'high'
  nstep = 180
  max_seconds = 75600
/
&SYSTEM
  degauss =   2.0000000000d-02
  ecutrho =   1.0800000000d+03
  ecutwfc =   9.0000000000d+01
  ibrav = 0
  nat = 20
  nosym = .false.
  nspin = 2
  ntyp = 4
  occupations = 'smearing'
  smearing = 'cold'
  starting_magnetization(1) =   1.0000000000d-01
  starting_magnetization(2) =   3.1250000000d-01
  starting_magnetization(3) =   1.0000000000d-01
  starting_magnetization(4) =   3.8461538462d-01
/
&ELECTRONS
  conv_thr =   4.0000000000d-09
  electron_maxstep = 250
  mixing_beta =   4.0000000000d-01
/
&IONS
/
&CELL
/
&FCP
/
&RISM
/
ATOMIC_SPECIES
F      18.9984032 f_pbesol_v1.4.uspp.F.UPF
Fe     55.845 Fe.pbesol-spn-kjpaw_psl.0.2.1.UPF
K      39.0983 K.pbesol-spn-kjpaw_psl.1.0.0.UPF
V      50.9415 v_pbesol_v1.4.uspp.F.UPF
ATOMIC_POSITIONS crystal
K            0.5000000000       0.5000000000       0.0000000000
K            0.0000000000       0.5000000000       0.5000000000
K            0.0513100000       0.7294740000       0.7540410000
K            0.9486900000       0.2705260000       0.2459590000
K            0.5504050000       0.2652790000       0.7481470000
K            0.4495950000       0.7347210000       0.2518530000
V            0.5000000000       0.0000000000       0.5000000000
Fe           0.0000000000       0.0000000000       0.0000000000
F            0.7533250000       0.7762930000       0.5595150000
F            0.2466750000       0.2237070000       0.4404850000
F            0.2539550000       0.2200540000       0.9398890000
F            0.7460450000       0.7799460000       0.0601110000
F            0.4578790000       0.8798120000       0.7138180000
F            0.5421210000       0.1201880000       0.2861820000
F            0.9572510000       0.1138140000       0.7894130000
F            0.0427490000       0.8861860000       0.2105870000
F            0.3261690000       0.6975560000       0.5410210000
F            0.6738310000       0.3024440000       0.4589790000
F            0.8294240000       0.3014750000       0.9581290000
F            0.1705760000       0.6985250000       0.0418710000
K_POINTS automatic
7 9 5 0 0 0
CELL_PARAMETERS angstrom
      6.4053241100       0.0000000000       0.0000000000
      0.0073960011       6.1663209746       0.0000000000
     -0.0000254026       6.1502056156       8.8316074351
HUBBARD (ortho-atomic)
U Fe-3d 4.5
