&CONTROL
  calculation = 'vc-relax'
  etot_conv_thr =   2.6000000000d-04
  forc_conv_thr =   1.0000000000d-04
  outdir = './out/'
  prefix = 'aiida'
  pseudo_dir = '/leonardo_scratch/large/userexternal/nalghamd/mc_mace/GNoME-screening/2_space_group_DFT/pseudo_SSSP1.3_aiida'
  tprnfor = .true.
  tstress = .true.
  verbosity = 'high'
  nstep = 180
  max_seconds = 75600
/
&SYSTEM
  degauss =   2.0000000000d-02
  ecutrho =   4.0000000000d+02
  ecutwfc =   5.0000000000d+01
  ibrav = 0
  nat = 22
  nosym = .false.
  nspin = 2
  ntyp = 3
  occupations = 'smearing'
  smearing = 'cold'
  starting_magnetization(1) =   1.0000000000d-01
  starting_magnetization(2) =   2.9411764706d-01
  starting_magnetization(3) =   1.0000000000d-01
  starting_magnetization(4) =   1.0000000000d-01
/
&ELECTRONS
  conv_thr =   5.2000000000d-09
  electron_maxstep = 250
  mixing_beta = 0.7  !4.0000000000d-01
/
&IONS
/
&CELL
/
&FCP
/
&RISM
/
ATOMIC_SPECIES
Co     58.933195 co_pbesol_v1.2.uspp.F.UPF
O      15.9994 O.pbesol-n-kjpaw_psl.0.1.UPF
P      30.973761 P.pbesol-n-rrkjus_psl.1.0.0.UPF

CELL_PARAMETERS (angstrom)
   4.715138151   0.000000000   0.000000000
   0.000000000   6.546031701  -0.110482001
   0.000000000  -0.429742009  10.795878342

ATOMIC_POSITIONS (crystal)
Co               0.5000000000        0.5000000000        0.5000000000
Co               0.0000000000        0.5000000000        0.0000000000
P                0.0914751669        0.7235469991        0.5981227125
P                0.5914751669        0.2764530009        0.9018772875
P                0.9085248331        0.2764530009        0.4018772875
P                0.4085248331        0.7235469991        0.0981227125
O                0.2438830292        0.5293159685        0.6460918436
O                0.7438830292        0.4706840315        0.8539081564
O                0.7561169708        0.4706840315        0.3539081564
O                0.2561169708        0.5293159685        0.1460918436
O                0.1514088873        0.9226095370        0.6743466476
O                0.6514088873        0.0773904630        0.8256533524
O                0.8485911127        0.0773904630        0.3256533524
O                0.3485911127        0.9226095370        0.1743466476
O                0.2588820854        0.7273178717        0.9676039045
O                0.7588820854        0.2726821283        0.5323960955
O                0.7276608336        0.6927097166        0.0866674563
O                0.2276608336        0.3072902834        0.4133325437
O                0.2723391664        0.3072902834        0.9133325437
O                0.7723391664        0.6927097166        0.5866674563
O                0.2411179146        0.7273178717        0.4676039045
O                0.7411179146        0.2726821283        0.0323960955
K_POINTS automatic
9 7 4 0 0 0
HUBBARD (ortho-atomic)
U Co-3d 5.2

