&CONTROL
  calculation = 'vc-relax'
  etot_conv_thr =   2.8000000000d-04
  forc_conv_thr =   1.0000000000d-04
  outdir = './out/'
  prefix = 'aiida'
  pseudo_dir = '/leonardo_scratch/large/userexternal/nalghamd/mc_mace/GNoME-screening/2_space_group_DFT/pseudo_SSSP1.3_aiida'
  tprnfor = .true.
  tstress = .true.
  verbosity = 'high'
  nstep = 180
  max_seconds = 75600
/
&SYSTEM
  degauss =   2.0000000000d-02
  ecutrho =   4.0000000000d+02
  ecutwfc =   5.0000000000d+01
  ibrav = 0
  nat = 28
  nosym = .false.
  nspin = 2
  ntyp = 4
  occupations = 'smearing'
  smearing = 'cold'
  starting_magnetization(1) =   1.0000000000d-01
  starting_magnetization(2) =   1.0000000000d-01
  starting_magnetization(3) =   1.0000000000d-01
  starting_magnetization(4) =   3.8461538462d-01
/
&ELECTRONS
  conv_thr =   5.6000000000d-09
  electron_maxstep = 250
  mixing_beta =   4.0000000000d-01
/
&IONS
/
&CELL
/
&FCP
/
&RISM
/
ATOMIC_SPECIES
Na     22.98977 na_pbesol_v1.5.uspp.F.UPF
O      15.9994 O.pbesol-n-kjpaw_psl.0.1.UPF
P      30.973761 P.pbesol-n-rrkjus_psl.1.0.0.UPF
V      50.9415 v_pbesol_v1.4.uspp.F.UPF
CELL_PARAMETERS (angstrom)
   5.237874916   0.013546194  -0.013288873
   2.826099454   4.410063601  -0.013288603
   0.322144741   0.176717210  13.902931303

ATOMIC_POSITIONS (crystal)
Na               0.9491319185        0.0508681918        0.2499999502
Na               0.0508680815        0.9491318082        0.7500000498
Na               0.2865516070        0.3782902058        0.1350936176
Na               0.6217096955        0.7134485065        0.3649062688
Na               0.3782903045        0.2865514935        0.6350937312
Na               0.7134483930        0.6217097942        0.8649063824
V                0.0000000000        0.0000000000        0.5000000000
V                0.0000000000        0.0000000000        0.0000000000
P                0.6466305180        0.6913436810        0.1115339978
P                0.6913449867        0.6466289944        0.6115344070
P                0.3086550133        0.3533710056        0.3884655930
P                0.3533694820        0.3086563190        0.8884660022
O                0.2747406769        0.0670749586        0.9141976425
O                0.9329251242        0.7252596493        0.5858023447
O                0.7252593231        0.9329250414        0.0858023575
O                0.0670748758        0.2747403507        0.4141976553
O                0.7099371895        0.1377419322        0.8861000781
O                0.8622572162        0.2900642701        0.6139000826
O                0.2900628105        0.8622580678        0.1138999219
O                0.1377427838        0.7099357299        0.3860999174
O                0.2185175647        0.5589061500        0.9662644440
O                0.4410927402        0.7814827304        0.5337351875
O                0.7814824353        0.4410938500        0.0337355560
O                0.5589072598        0.2185172696        0.4662648125
O                0.4510345866        0.2221216692        0.2904494179
O                0.7778781895        0.5489657025        0.2095506744
O                0.5489654134        0.7778783308        0.7095505821
O                0.2221218105        0.4510342975        0.7904493256
K_POINTS automatic
10 10 3 0 0 0
HUBBARD (ortho-atomic)
U V-3d 3.9
