&CONTROL
  calculation = 'vc-relax'
  etot_conv_thr =   7.4000000000d-04
  forc_conv_thr =   1.0000000000d-04
  outdir = './out/'
  prefix = 'aiida'
  pseudo_dir = '/leonardo_scratch/large/userexternal/nalghamd/mc_mace/GNoME-screening/2_space_group_DFT/pseudo_SSSP1.3_aiida'
  tprnfor = .true.
  tstress = .true.
  verbosity = 'high'
  nstep = 180
  max_seconds = 75600
  restart_mode = 'restart'
/
&SYSTEM
  degauss =   2.0000000000d-02
  ecutrho =   1.0800000000d+03
  ecutwfc =   9.0000000000d+01
  ibrav = 0
  nat = 66
  nosym = .false.
  nspin = 2
  ntyp = 3
  occupations = 'smearing'
  smearing = 'cold'
  starting_magnetization(1) =   3.1250000000d-01
  starting_magnetization(2) =   1.0000000000d-01
  starting_magnetization(3) =   1.0000000000d-01
  starting_magnetization(4) =   1.0000000000d-01
/
&ELECTRONS
  conv_thr =   1.4800000000d-08
  electron_maxstep = 250
  mixing_beta =   4.0000000000d-01
/
&IONS
/
&CELL
/
&FCP
/
&RISM
/
ATOMIC_SPECIES
Fe     55.845 Fe.pbesol-spn-kjpaw_psl.0.2.1.UPF
O      15.9994 O.pbesol-n-kjpaw_psl.0.1.UPF
P      30.973761 P.pbesol-n-rrkjus_psl.1.0.0.UPF
ATOMIC_POSITIONS crystal
Fe           0.5000000000       0.5000000000       0.0000000000
Fe           0.2456700000       0.2157670000       0.1329340000
Fe           0.0000000000       0.0000000000       0.0000000000
Fe           0.2543300000       0.7157670000       0.1329340000
Fe           0.0101530000       0.1970060000       0.3393440000
Fe           0.4898470000       0.6970060000       0.3393440000
Fe           0.5101530000       0.3029940000       0.6606560000
Fe           0.9898470000       0.8029940000       0.6606560000
Fe           0.7456700000       0.2842330000       0.8670660000
Fe           0.7543300000       0.7842330000       0.8670660000
P            0.7397430000       0.2249790000       0.0888890000
P            0.7602570000       0.7249790000       0.0888890000
P            0.3882540000       0.4319210000       0.2590280000
P            0.1117460000       0.9319210000       0.2590280000
P            0.7070410000       0.4129380000       0.4165700000
P            0.7929590000       0.9129380000       0.4165700000
P            0.2070410000       0.0870620000       0.5834300000
P            0.2929590000       0.5870620000       0.5834300000
P            0.8882540000       0.0680790000       0.7409720000
P            0.6117460000       0.5680790000       0.7409720000
P            0.2397430000       0.2750210000       0.9111110000
P            0.2602570000       0.7750210000       0.9111110000
O            0.7724680000       0.1348720000       0.0114130000
O            0.7145090000       0.3575110000       0.0082690000
O            0.7275320000       0.6348720000       0.0114130000
O            0.7854910000       0.8575110000       0.0082690000
O            0.5531910000       0.1782040000       0.1587900000
O            0.9224600000       0.2337370000       0.1623550000
O            0.5466170000       0.4525630000       0.1720260000
O            0.2099130000       0.0557850000       0.2715970000
O            0.9468090000       0.6782040000       0.1587900000
O            0.5775390000       0.7337370000       0.1623550000
O            0.2328630000       0.3314500000       0.2472070000
O            0.9533830000       0.9525630000       0.1720260000
O            0.2900870000       0.5557850000       0.2715970000
O            0.7930580000       0.0579980000       0.3931940000
O            0.2671370000       0.8314500000       0.2472070000
O            0.8750220000       0.3659050000       0.3549410000
O            0.4951190000       0.3672880000       0.3727660000
O            0.2069410000       0.1512720000       0.4641810000
O            0.7069420000       0.5579980000       0.3931940000
O            0.6249780000       0.8659050000       0.3549410000
O            0.0048810000       0.8672880000       0.3727660000
O            0.2930590000       0.6512720000       0.4641810000
O            0.7069410000       0.3487280000       0.5358190000
O            0.9951190000       0.1327120000       0.6272340000
O            0.3750220000       0.1340950000       0.6450590000
O            0.2930580000       0.4420020000       0.6068060000
O            0.7930590000       0.8487280000       0.5358190000
O            0.5048810000       0.6327120000       0.6272340000
O            0.1249780000       0.6340950000       0.6450590000
O            0.7328630000       0.1685500000       0.7527930000
O            0.2069420000       0.9420020000       0.6068060000
O            0.7099130000       0.4442150000       0.7284030000
O            0.0466170000       0.0474370000       0.8279740000
O            0.7671370000       0.6685500000       0.7527930000
O            0.4224600000       0.2662630000       0.8376450000
O            0.0531910000       0.3217960000       0.8412100000
O            0.7900870000       0.9442150000       0.7284030000
O            0.4533830000       0.5474370000       0.8279740000
O            0.0775400000       0.7662630000       0.8376450000
O            0.4468090000       0.8217960000       0.8412100000
O            0.2145090000       0.1424890000       0.9917310000
O            0.2724680000       0.3651280000       0.9885870000
O            0.2854910000       0.6424890000       0.9917310000
O            0.2275320000       0.8651280000       0.9885870000
K_POINTS automatic
7 4 4 0 0 0
CELL_PARAMETERS angstrom
      6.6736280000       0.0000000000       0.0000000000
      0.0000000000      10.8657586000       0.0000000000
      0.0000000000       3.0404463891      12.4459901582
HUBBARD (ortho-atomic)
U Fe-3d 4.5
