&CONTROL
  calculation = 'vc-relax'
  etot_conv_thr =   1.3000000000d-04
  forc_conv_thr =   1.0000000000d-04
  outdir = './out/'
  prefix = 'aiida'
  pseudo_dir = '/leonardo_scratch/large/userexternal/nalghamd/mc_mace/GNoME-screening/2_space_group_DFT/pseudo_SSSP1.3_aiida'
  tprnfor = .true.
  tstress = .true.
  verbosity = 'high'
  nstep = 180
  max_seconds = 75600
/
&SYSTEM
  degauss =   2.0000000000d-02
  ecutrho =   7.8000000000d+02
  ecutwfc =   6.5000000000d+01
  ibrav = 0
  nat = 12
  nosym = .false.
  nspin = 2
  ntyp = 3
  occupations = 'smearing'
  smearing = 'cold'
  starting_magnetization(1) =   2.9411764706d-01
  starting_magnetization(2) =   1.0000000000d-01
  starting_magnetization(3) =   3.3333333333d-01
  starting_magnetization(4) =   1.0000000000d-01
/
&ELECTRONS
  conv_thr =   2.6000000000d-09
  electron_maxstep = 300
  mixing_beta = 0.7 !0.3 !0.7 !4.0000000000d-01
  diagonalization = 'cg'
/
&IONS
/
&CELL
/
&FCP
/
&RISM
/
ATOMIC_SPECIES
Co     58.933195 co_pbesol_v1.2.uspp.F.UPF
Mn     54.938045 mn_pbesol_v1.5.uspp.F.UPF
O      15.9994 O.pbesol-n-kjpaw_psl.0.1.UPF
ATOMIC_POSITIONS crystal
Mn           0.0000000000       0.0000000000       0.0000000000
Mn           0.0000000000       0.5000000000       0.0000000000
Mn           0.5000000000       0.0000000000       0.0000000000
Co           0.5000000000       0.5000000000       0.0000000000
O            0.7149370000       0.7149370000       0.8452240000
O            0.7142490000       0.2140630000       0.8457920000
O            0.2140630000       0.7142490000       0.8457920000
O            0.2155410000       0.2155410000       0.8422950000
O            0.7844590000       0.7844590000       0.1577050000
O            0.7859370000       0.2857510000       0.1542080000
O            0.2857510000       0.7859370000       0.1542080000
O            0.2850630000       0.2850630000       0.1547760000
K_POINTS automatic
9 9 7 0 0 0
CELL_PARAMETERS angstrom
      5.7762713300       0.0000000000       0.0000000000
      2.8813059597       5.0063345278       0.0000000000
      2.6617083506       1.5391606850       6.3368386572
HUBBARD (ortho-atomic)
U Co-3d 5.2
