&CONTROL
  calculation = 'vc-relax'
  etot_conv_thr =   8.4000000000d-04
  forc_conv_thr =   1.0000000000d-04
  outdir = './out/'
  prefix = 'aiida'
  pseudo_dir = '/leonardo_scratch/large/userexternal/nalghamd/mc_mace/GNoME-screening/2_space_group_DFT/pseudo_SSSP1.3_aiida'
  tprnfor = .true.
  tstress = .true.
  verbosity = 'high'
  nstep = 180
  max_seconds = 75600
/
&SYSTEM
  degauss =   2.0000000000d-02
  ecutrho =   1.0800000000d+03
  ecutwfc =   9.0000000000d+01
  ibrav = 0
  nat = 84
  nosym = .false.
  nspin = 2
  ntyp = 4
  occupations = 'smearing'
  smearing = 'cold'
  starting_magnetization(1) =   3.1250000000d-01
  starting_magnetization(2) =   1.0000000000d-01
  starting_magnetization(3) =   1.0000000000d-01
  starting_magnetization(4) =   1.0000000000d-01
/
&ELECTRONS
  conv_thr =   1.6800000000d-08
  electron_maxstep = 250
  mixing_beta =   4.0000000000d-01
/
&IONS
/
&CELL
/
&FCP
/
&RISM
/
ATOMIC_SPECIES
Fe     55.845 Fe.pbesol-spn-kjpaw_psl.0.2.1.UPF
Mg     24.305 Mg.pbesol-n-kjpaw_psl.0.3.0.UPF
O      15.9994 O.pbesol-n-kjpaw_psl.0.1.UPF
P      30.973761 P.pbesol-n-rrkjus_psl.1.0.0.UPF
ATOMIC_POSITIONS crystal
Mg           0.2460320000       0.6185470000       0.7500000000
Mg           0.7460320000       0.8814530000       0.7500000000
Mg           0.7539680000       0.3814530000       0.2500000000
Mg           0.2539680000       0.1185470000       0.2500000000
Fe           0.2511690000       0.6207700000       0.9898090000
Fe           0.7511690000       0.8792300000       0.5101910000
Fe           0.7488310000       0.3792300000       0.4898090000
Fe           0.2488310000       0.1207700000       0.0101910000
Fe           0.7488310000       0.3792300000       0.0101910000
Fe           0.2488310000       0.1207700000       0.4898090000
Fe           0.2511690000       0.6207700000       0.5101910000
Fe           0.7511690000       0.8792300000       0.9898090000
P            0.5854580000       0.6206230000       0.8666310000
P            0.0854580000       0.8793770000       0.6333690000
P            0.4145420000       0.3793770000       0.3666310000
P            0.9145420000       0.1206230000       0.1333690000
P            0.4145420000       0.3793770000       0.1333690000
P            0.9145420000       0.1206230000       0.3666310000
P            0.5854580000       0.6206230000       0.6333690000
P            0.0854580000       0.8793770000       0.8666310000
P            0.5736290000       0.1332800000       0.8725140000
P            0.0736290000       0.3667200000       0.6274860000
P            0.4263710000       0.8667200000       0.3725140000
P            0.9263710000       0.6332800000       0.1274860000
P            0.4263710000       0.8667200000       0.1274860000
P            0.9263710000       0.6332800000       0.3725140000
P            0.5736290000       0.1332800000       0.6274860000
P            0.0736290000       0.3667200000       0.8725140000
O            0.1298410000       0.9378610000       0.7500000000
O            0.6298410000       0.5621390000       0.7500000000
O            0.8701590000       0.0621390000       0.2500000000
O            0.3701590000       0.4378610000       0.2500000000
O            0.0476210000       0.3198970000       0.7500000000
O            0.5476210000       0.1801030000       0.7500000000
O            0.9523790000       0.6801030000       0.2500000000
O            0.4523790000       0.8198970000       0.2500000000
O            0.9215140000       0.3920950000       0.5801690000
O            0.4215140000       0.1079050000       0.9198310000
O            0.0784860000       0.6079050000       0.0801690000
O            0.5784860000       0.8920950000       0.4198310000
O            0.0784860000       0.6079050000       0.4198310000
O            0.5784860000       0.8920950000       0.0801690000
O            0.9215140000       0.3920950000       0.9198310000
O            0.4215140000       0.1079050000       0.5801690000
O            0.1530130000       0.2555010000       0.9277590000
O            0.6530130000       0.2444990000       0.5722410000
O            0.8469870000       0.7444990000       0.4277590000
O            0.3469870000       0.7555010000       0.0722410000
O            0.8469870000       0.7444990000       0.0722410000
O            0.3469870000       0.7555010000       0.4277590000
O            0.1530130000       0.2555010000       0.5722410000
O            0.6530130000       0.2444990000       0.9277590000
O            0.4156660000       0.6286210000       0.8666970000
O            0.9156660000       0.8713790000       0.6333030000
O            0.5843340000       0.3713790000       0.3666970000
O            0.0843340000       0.1286210000       0.1333030000
O            0.5843340000       0.3713790000       0.1333030000
O            0.0843340000       0.1286210000       0.3666970000
O            0.4156660000       0.6286210000       0.6333030000
O            0.9156660000       0.8713790000       0.8666970000
O            0.6667050000       0.0081750000       0.8665340000
O            0.1667050000       0.4918250000       0.6334660000
O            0.3332950000       0.9918250000       0.3665340000
O            0.8332950000       0.5081750000       0.1334660000
O            0.3332950000       0.9918250000       0.1334660000
O            0.8332950000       0.5081750000       0.3665340000
O            0.6667050000       0.0081750000       0.6334660000
O            0.1667050000       0.4918250000       0.8665340000
O            0.1576930000       0.7438370000       0.8710660000
O            0.6576930000       0.7561630000       0.6289340000
O            0.8423070000       0.2561630000       0.3710660000
O            0.3423070000       0.2438370000       0.1289340000
O            0.8423070000       0.2561630000       0.1289340000
O            0.3423070000       0.2438370000       0.3710660000
O            0.1576930000       0.7438370000       0.6289340000
O            0.6576930000       0.7561630000       0.8710660000
O            0.1472980000       0.9716090000       0.9488490000
O            0.6472980000       0.5283910000       0.5511510000
O            0.8527020000       0.0283910000       0.4488490000
O            0.3527020000       0.4716090000       0.0511510000
O            0.8527020000       0.0283910000       0.0511510000
O            0.3527020000       0.4716090000       0.4488490000
O            0.1472980000       0.9716090000       0.5511510000
O            0.6472980000       0.5283910000       0.9488490000
K_POINTS automatic
5 5 4 0 0 0
CELL_PARAMETERS angstrom
      9.0558610000       0.0000000000       0.0000000000
      0.0000000000      10.2998650000       0.0000000000
      0.0000000000       0.0000000000      12.4098910000
HUBBARD (ortho-atomic)
U Fe-3d 4.5
