&CONTROL
  calculation = 'vc-relax'
  etot_conv_thr =   4.4000000000d-04
  forc_conv_thr =   1.0000000000d-04
  outdir = './out/'
  prefix = 'aiida'
  pseudo_dir = '/leonardo_scratch/large/userexternal/nalghamd/mc_mace/GNoME-screening/2_space_group_DFT/pseudo_SSSP1.3_aiida'
  tprnfor = .true.
  tstress = .true.
  verbosity = 'high'
  nstep = 180
  max_seconds = 75600
/
&SYSTEM
  degauss =   2.0000000000d-02
  ecutrho =   1.0800000000d+03
  ecutwfc =   9.0000000000d+01
  ibrav = 0
  nat = 42
  nosym = .false.
  nspin = 2
  ntyp = 4
  occupations = 'smearing'
  smearing = 'cold'
  starting_magnetization(1) =   1.0000000000d-01
  starting_magnetization(2) =   3.1250000000d-01
  starting_magnetization(3) =   2.7777777778d-01
  starting_magnetization(4) =   1.0000000000d-01
  starting_magnetization(5) =   1.0000000000d-01
/
&ELECTRONS
  conv_thr =   8.8000000000d-09
  electron_maxstep = 250
  mixing_beta =   4.0000000000d-01
/
&IONS
/
&CELL
/
&FCP
/
&RISM
/
ATOMIC_SPECIES
Fe     55.845 Fe.pbesol-spn-kjpaw_psl.0.2.1.UPF
Ni     58.6934 ni_pbesol_v1.4.uspp.F.UPF
O      15.9994 O.pbesol-n-kjpaw_psl.0.1.UPF
P      30.973761 P.pbesol-n-rrkjus_psl.1.0.0.UPF
ATOMIC_POSITIONS crystal
Fe           0.1254020000       0.8111310000       0.5281990000
Fe           0.6254020000       0.1888690000       0.9718010000
Fe           0.8745980000       0.1888690000       0.4718010000
Fe           0.3745980000       0.8111310000       0.0281990000
Ni           0.0000000000       0.0000000000       0.0000000000
Ni           0.5000000000       0.0000000000       0.5000000000
P            0.9370830000       0.3997980000       0.7060300000
P            0.4370830000       0.6002020000       0.7939700000
P            0.0629170000       0.6002020000       0.2939700000
P            0.5629170000       0.3997980000       0.2060300000
P            0.2034980000       0.1207820000       0.6915610000
P            0.7034980000       0.8792180000       0.8084390000
P            0.7965020000       0.8792180000       0.3084390000
P            0.2965020000       0.1207820000       0.1915610000
O            0.3757170000       0.1692680000       0.6080500000
O            0.8757170000       0.8307320000       0.8919500000
O            0.6242830000       0.8307320000       0.3919500000
O            0.1242830000       0.1692680000       0.1080500000
O            0.3893970000       0.7277590000       0.6281540000
O            0.8893970000       0.2722410000       0.8718460000
O            0.6106030000       0.2722410000       0.3718460000
O            0.1106030000       0.7277590000       0.1281540000
O            0.8060680000       0.3804920000       0.5938390000
O            0.3060680000       0.6195080000       0.9061610000
O            0.1939320000       0.6195080000       0.4061610000
O            0.6939320000       0.3804920000       0.0938390000
O            0.1229070000       0.3263430000       0.6730990000
O            0.6229070000       0.6736570000       0.8269010000
O            0.8770930000       0.6736570000       0.3269010000
O            0.3770930000       0.3263430000       0.1730990000
O            0.5213630000       0.6017730000       0.1992710000
O            0.0213630000       0.3982270000       0.3007290000
O            0.4786370000       0.3982270000       0.8007290000
O            0.9786370000       0.6017730000       0.6992710000
O            0.7888440000       0.9884770000       0.1368610000
O            0.2888440000       0.0115230000       0.3631390000
O            0.2111560000       0.0115230000       0.8631390000
O            0.7111560000       0.9884770000       0.6368610000
O            0.4228400000       0.0297800000       0.1146950000
O            0.9228400000       0.9702200000       0.3853050000
O            0.5771600000       0.9702200000       0.8853050000
O            0.0771600000       0.0297800000       0.6146950000
K_POINTS automatic
6 7 5 0 0 0
CELL_PARAMETERS angstrom
      7.7444440000       0.0000000000       0.0000000000
      0.0000000000       7.5191803300       0.0000000000
      0.0000000000       3.5904752176       8.8755525375
HUBBARD (ortho-atomic)
U Fe-3d 4.5
U Ni-3d 5.8
