&CONTROL
  calculation = 'vc-relax'
  etot_conv_thr =   6.0000000000d-04
  forc_conv_thr =   1.0000000000d-04
  outdir = './out/'
  prefix = 'aiida'
  pseudo_dir = '/leonardo_scratch/large/userexternal/nalghamd/mc_mace/GNoME-screening/2_space_group_DFT/pseudo_SSSP1.3_aiida'
  tprnfor = .true.
  tstress = .true.
  verbosity = 'high'
  nstep = 180
  max_seconds = 75600
  restart_mode = 'restart'
/
&SYSTEM
  degauss =   2.0000000000d-02
  ecutrho =   1.0800000000d+03
  ecutwfc =   9.0000000000d+01
  ibrav = 0
  nat = 60
  nosym = .false.
  nspin = 2
  ntyp = 6
  occupations = 'smearing'
  smearing = 'cold'
  starting_magnetization(1) =   1.0000000000d-01
  starting_magnetization(2) =   1.0000000000d-01
  starting_magnetization(3) =   3.1250000000d-01
  starting_magnetization(4) =   1.0000000000d-01
  starting_magnetization(5) =   1.0000000000d-01
  starting_magnetization(6) =   1.0000000000d-01
/
&ELECTRONS
  conv_thr =   1.2000000000d-08
  electron_maxstep = 250
  mixing_beta =   4.0000000000d-01
/
&IONS
/
&CELL
/
&FCP
/
&RISM
/
ATOMIC_SPECIES
Ca     40.078 ca_pbesol_v1.uspp.F.UPF
F      18.9984032 f_pbesol_v1.4.uspp.F.UPF
Fe     55.845 Fe.pbesol-spn-kjpaw_psl.0.2.1.UPF
K      39.0983 K.pbesol-spn-kjpaw_psl.1.0.0.UPF
O      15.9994 O.pbesol-n-kjpaw_psl.0.1.UPF
P      30.973761 P.pbesol-n-rrkjus_psl.1.0.0.UPF
ATOMIC_POSITIONS crystal
K            0.5035320000       0.0670420000       0.8239540000
K            0.9981240000       0.5645310000       0.6736950000
K            0.0025900000       0.9349490000       0.6702580000
K            0.4992510000       0.4347890000       0.8236320000
K            0.4964680000       0.9329580000       0.1760460000
K            0.0018760000       0.4354690000       0.3263050000
K            0.9974100000       0.0650510000       0.3297420000
K            0.5007490000       0.5652110000       0.1763680000
Ca           0.0000000000       0.0000000000       0.0000000000
Fe           0.0022820000       0.2541850000       0.8330670000
Fe           0.4988940000       0.7492430000       0.6651610000
Fe           0.9977180000       0.7458150000       0.1669330000
Fe           0.5011060000       0.2507570000       0.3348390000
Fe           0.5000000000       0.5000000000       0.5000000000
Fe           0.5000000000       0.0000000000       0.5000000000
Fe           0.0000000000       0.5000000000       0.0000000000
P            0.2183400000       0.2489920000       0.5778460000
P            0.2823050000       0.7404160000       0.9219480000
P            0.7128190000       0.7449590000       0.9178770000
P            0.7825090000       0.2516230000       0.5783350000
P            0.7816600000       0.7510080000       0.4221540000
P            0.7176950000       0.2595840000       0.0780520000
P            0.2871810000       0.2550410000       0.0821230000
P            0.2174910000       0.7483770000       0.4216650000
O            0.0002760000       0.2502200000       0.5202760000
O            0.4989030000       0.7363880000       0.9792440000
O            0.9997240000       0.7497800000       0.4797240000
O            0.5010970000       0.2636120000       0.0207560000
O            0.1695940000       0.3285560000       0.9902000000
O            0.3258960000       0.8287230000       0.5132170000
O            0.6729650000       0.6714320000       0.5139270000
O            0.8220350000       0.1825260000       0.9831270000
O            0.8304060000       0.6714440000       0.0098000000
O            0.6741040000       0.1712770000       0.4867830000
O            0.3270350000       0.3285680000       0.4860730000
O            0.1779650000       0.8174740000       0.0168730000
O            0.2798670000       0.1099670000       0.5822190000
O            0.2170380000       0.6026520000       0.9125430000
O            0.7616400000       0.8851730000       0.9097220000
O            0.7202250000       0.3903940000       0.5827550000
O            0.7201330000       0.8900330000       0.4177810000
O            0.7829620000       0.3973480000       0.0874570000
O            0.2383600000       0.1148270000       0.0902780000
O            0.2797750000       0.6096060000       0.4172450000
O            0.2060330000       0.3110480000       0.6986200000
O            0.2939910000       0.8072080000       0.8030720000
O            0.7002780000       0.6812820000       0.7976830000
O            0.7959210000       0.1905090000       0.6995140000
O            0.7939670000       0.6889520000       0.3013800000
O            0.7060090000       0.1927920000       0.1969280000
O            0.2997220000       0.3187180000       0.2023170000
O            0.2040790000       0.8094910000       0.3004860000
F            0.1238900000       0.0815560000       0.8366270000
F            0.3804890000       0.5759860000       0.6539960000
F            0.6160670000       0.9230980000       0.6549620000
F            0.8812000000       0.4251020000       0.8441030000
F            0.8761100000       0.9184440000       0.1633730000
F            0.6195110000       0.4240140000       0.3460040000
F            0.3839330000       0.0769020000       0.3450380000
F            0.1188000000       0.5748980000       0.1558970000
K_POINTS automatic
7 4 4 0 0 0
CELL_PARAMETERS angstrom
      6.9441990000       0.0000000000       0.0000000000
      0.0000000000      10.5790220000       0.0000000000
      0.0000000000       0.0000000000      11.4141590000
HUBBARD (ortho-atomic)
U Fe-3d 4.5
