&CONTROL
  calculation = 'vc-relax'
  etot_conv_thr =   3.6000000000d-04
  forc_conv_thr =   1.0000000000d-04
  outdir = './out/'
  prefix = 'aiida'
  pseudo_dir = '/leonardo_scratch/large/userexternal/nalghamd/mc_mace/GNoME-screening/2_space_group_DFT/pseudo_SSSP1.3_aiida'
  tprnfor = .true.
  tstress = .true.
  verbosity = 'high'
  nstep = 180
  max_seconds = 75600
/
&SYSTEM
  degauss =   2.0000000000d-02
  ecutrho =   1.0800000000d+03
  ecutwfc =   9.0000000000d+01
  ibrav = 0
  nat = 36
  nosym = .false.
  nspin = 2
  ntyp = 4
  occupations = 'smearing'
  smearing = 'cold'
  starting_magnetization(1) =   1.0000000000d-01
  starting_magnetization(2) =   3.1250000000d-01
  starting_magnetization(3) =   1.0000000000d-01
  starting_magnetization(4) =   1.0000000000d-01
/
&ELECTRONS
  conv_thr =   7.2000000000d-09
  electron_maxstep = 250
  mixing_beta =   4.0000000000d-01
/
&IONS
/
&CELL
/
&FCP
/
&RISM
/
ATOMIC_SPECIES
Ca     40.078 ca_pbesol_v1.uspp.F.UPF
Fe     55.845 Fe.pbesol-spn-kjpaw_psl.0.2.1.UPF
O      15.9994 O.pbesol-n-kjpaw_psl.0.1.UPF
P      30.973761 P.pbesol-n-rrkjus_psl.1.0.0.UPF
ATOMIC_POSITIONS crystal
Ca           0.0000000000       0.5000000000       0.5000000000
Ca           0.5360390000       0.4536670000       0.7552860000
Ca           0.4639610000       0.5463330000       0.2447140000
Fe           0.5000000000       0.0000000000       0.0000000000
P            0.8007270000       0.8231880000       0.6948070000
P            0.1871450000       0.1896520000       0.8129690000
P            0.1992730000       0.1768120000       0.3051930000
P            0.8128550000       0.8103480000       0.1870310000
P            0.7667620000       0.2145820000       0.4754880000
P            0.7781240000       0.2292060000       0.0234300000
P            0.2332380000       0.7854180000       0.5245120000
P            0.2218760000       0.7707940000       0.9765700000
O            0.0303820000       0.8119630000       0.6555240000
O            0.1992360000       0.9652290000       0.8429820000
O            0.9696180000       0.1880370000       0.3444760000
O            0.8007640000       0.0347710000       0.1570180000
O            0.7417720000       0.9952470000       0.5594150000
O            0.0009780000       0.2500150000       0.9423330000
O            0.2582280000       0.0047530000       0.4405850000
O            0.9990220000       0.7499850000       0.0576670000
O            0.6956090000       0.8713220000       0.8346090000
O            0.1562390000       0.2986410000       0.6690560000
O            0.3043910000       0.1286780000       0.1653910000
O            0.8437610000       0.7013590000       0.3309440000
O            0.7774850000       0.6432380000       0.6831560000
O            0.3608850000       0.2077320000       0.8385230000
O            0.2225150000       0.3567620000       0.3168440000
O            0.6391150000       0.7922680000       0.1614770000
O            0.7908010000       0.2960410000       0.5761650000
O            0.6962890000       0.1974500000       0.9263370000
O            0.2091990000       0.7039590000       0.4238350000
O            0.3037110000       0.8025500000       0.0736630000
O            0.3931160000       0.6810520000       0.5900430000
O            0.3253560000       0.6051170000       0.9172790000
O            0.6068840000       0.3189480000       0.4099570000
O            0.6746440000       0.3948830000       0.0827210000
K_POINTS automatic
7 7 5 0 0 0
CELL_PARAMETERS angstrom
      7.6654538800       0.0000000000       0.0000000000
      2.6126936859       7.2656504934       0.0000000000
      4.2259100425       2.8672999404       9.1781858409
HUBBARD (ortho-atomic)
U Fe-3d 4.5
